*SPEF "IEEE 1481-1998"
*DESIGN "axi_ram"
*DATE "Sun Aug 02 04:02:36 pm 2026"
*VENDOR "Cadence Design Systems"
*PROGRAM "Genus(TM) Synthesis Solution"
*VERSION "23.14-s090_1"
*DESIGN_FLOW "PIN_CAP NONE" "NAME_SCOPE LOCAL"
*DIVIDER /
*DELIMITER :
*BUS_DELIMITER []
*T_UNIT 1 NS
*C_UNIT 1 PF
*R_UNIT 1 OHM
*L_UNIT 1 HENRY
// Wireload mode: enclosed

*NAME_MAP

*1 clk
*2 rst_n
*3 s_axi_awid[4]
*4 s_axi_awid[3]
*5 s_axi_awid[2]
*6 s_axi_awid[1]
*7 s_axi_awid[0]
*8 s_axi_awaddr[31]
*9 s_axi_awaddr[30]
*10 s_axi_awaddr[29]
*11 s_axi_awaddr[28]
*12 s_axi_awaddr[27]
*13 s_axi_awaddr[26]
*14 s_axi_awaddr[25]
*15 s_axi_awaddr[24]
*16 s_axi_awaddr[23]
*17 s_axi_awaddr[22]
*18 s_axi_awaddr[21]
*19 s_axi_awaddr[20]
*20 s_axi_awaddr[19]
*21 s_axi_awaddr[18]
*22 s_axi_awaddr[17]
*23 s_axi_awaddr[16]
*24 s_axi_awaddr[15]
*25 s_axi_awaddr[14]
*26 s_axi_awaddr[13]
*27 s_axi_awaddr[12]
*28 s_axi_awaddr[11]
*29 s_axi_awaddr[10]
*30 s_axi_awaddr[9]
*31 s_axi_awaddr[8]
*32 s_axi_awaddr[7]
*33 s_axi_awaddr[6]
*34 s_axi_awaddr[5]
*35 s_axi_awaddr[4]
*36 s_axi_awaddr[3]
*37 s_axi_awaddr[2]
*38 s_axi_awaddr[1]
*39 s_axi_awaddr[0]
*40 s_axi_awlen[7]
*41 s_axi_awlen[6]
*42 s_axi_awlen[5]
*43 s_axi_awlen[4]
*44 s_axi_awlen[3]
*45 s_axi_awlen[2]
*46 s_axi_awlen[1]
*47 s_axi_awlen[0]
*48 s_axi_awsize[2]
*49 s_axi_awsize[1]
*50 s_axi_awsize[0]
*51 s_axi_awburst[1]
*52 s_axi_awburst[0]
*53 s_axi_awlock
*54 s_axi_awcache[3]
*55 s_axi_awcache[2]
*56 s_axi_awcache[1]
*57 s_axi_awcache[0]
*58 s_axi_awprot[2]
*59 s_axi_awprot[1]
*60 s_axi_awprot[0]
*61 s_axi_awqos[3]
*62 s_axi_awqos[2]
*63 s_axi_awqos[1]
*64 s_axi_awqos[0]
*65 s_axi_awregion[3]
*66 s_axi_awregion[2]
*67 s_axi_awregion[1]
*68 s_axi_awregion[0]
*69 s_axi_awvalid
*70 s_axi_wdata[31]
*71 s_axi_wdata[30]
*72 s_axi_wdata[29]
*73 s_axi_wdata[28]
*74 s_axi_wdata[27]
*75 s_axi_wdata[26]
*76 s_axi_wdata[25]
*77 s_axi_wdata[24]
*78 s_axi_wdata[23]
*79 s_axi_wdata[22]
*80 s_axi_wdata[21]
*81 s_axi_wdata[20]
*82 s_axi_wdata[19]
*83 s_axi_wdata[18]
*84 s_axi_wdata[17]
*85 s_axi_wdata[16]
*86 s_axi_wdata[15]
*87 s_axi_wdata[14]
*88 s_axi_wdata[13]
*89 s_axi_wdata[12]
*90 s_axi_wdata[11]
*91 s_axi_wdata[10]
*92 s_axi_wdata[9]
*93 s_axi_wdata[8]
*94 s_axi_wdata[7]
*95 s_axi_wdata[6]
*96 s_axi_wdata[5]
*97 s_axi_wdata[4]
*98 s_axi_wdata[3]
*99 s_axi_wdata[2]
*100 s_axi_wdata[1]
*101 s_axi_wdata[0]
*102 s_axi_wstrb[3]
*103 s_axi_wstrb[2]
*104 s_axi_wstrb[1]
*105 s_axi_wstrb[0]
*106 s_axi_wlast
*107 s_axi_wvalid
*108 s_axi_bready
*109 s_axi_arid[4]
*110 s_axi_arid[3]
*111 s_axi_arid[2]
*112 s_axi_arid[1]
*113 s_axi_arid[0]
*114 s_axi_araddr[31]
*115 s_axi_araddr[30]
*116 s_axi_araddr[29]
*117 s_axi_araddr[28]
*118 s_axi_araddr[27]
*119 s_axi_araddr[26]
*120 s_axi_araddr[25]
*121 s_axi_araddr[24]
*122 s_axi_araddr[23]
*123 s_axi_araddr[22]
*124 s_axi_araddr[21]
*125 s_axi_araddr[20]
*126 s_axi_araddr[19]
*127 s_axi_araddr[18]
*128 s_axi_araddr[17]
*129 s_axi_araddr[16]
*130 s_axi_araddr[15]
*131 s_axi_araddr[14]
*132 s_axi_araddr[13]
*133 s_axi_araddr[12]
*134 s_axi_araddr[11]
*135 s_axi_araddr[10]
*136 s_axi_araddr[9]
*137 s_axi_araddr[8]
*138 s_axi_araddr[7]
*139 s_axi_araddr[6]
*140 s_axi_araddr[5]
*141 s_axi_araddr[4]
*142 s_axi_araddr[3]
*143 s_axi_araddr[2]
*144 s_axi_araddr[1]
*145 s_axi_araddr[0]
*146 s_axi_arlen[7]
*147 s_axi_arlen[6]
*148 s_axi_arlen[5]
*149 s_axi_arlen[4]
*150 s_axi_arlen[3]
*151 s_axi_arlen[2]
*152 s_axi_arlen[1]
*153 s_axi_arlen[0]
*154 s_axi_arsize[2]
*155 s_axi_arsize[1]
*156 s_axi_arsize[0]
*157 s_axi_arburst[1]
*158 s_axi_arburst[0]
*159 s_axi_arlock
*160 s_axi_arcache[3]
*161 s_axi_arcache[2]
*162 s_axi_arcache[1]
*163 s_axi_arcache[0]
*164 s_axi_arprot[2]
*165 s_axi_arprot[1]
*166 s_axi_arprot[0]
*167 s_axi_arqos[3]
*168 s_axi_arqos[2]
*169 s_axi_arqos[1]
*170 s_axi_arqos[0]
*171 s_axi_arregion[3]
*172 s_axi_arregion[2]
*173 s_axi_arregion[1]
*174 s_axi_arregion[0]
*175 s_axi_arvalid
*176 s_axi_rready
*177 s_axi_awready
*178 s_axi_wready
*179 s_axi_bid[4]
*180 s_axi_bid[3]
*181 s_axi_bid[2]
*182 s_axi_bid[1]
*183 s_axi_bid[0]
*184 s_axi_bresp[1]
*185 s_axi_bresp[0]
*186 s_axi_bvalid
*187 s_axi_arready
*188 s_axi_rid[4]
*189 s_axi_rid[3]
*190 s_axi_rid[2]
*191 s_axi_rid[1]
*192 s_axi_rid[0]
*193 s_axi_rdata[31]
*194 s_axi_rdata[30]
*195 s_axi_rdata[29]
*196 s_axi_rdata[28]
*197 s_axi_rdata[27]
*198 s_axi_rdata[26]
*199 s_axi_rdata[25]
*200 s_axi_rdata[24]
*201 s_axi_rdata[23]
*202 s_axi_rdata[22]
*203 s_axi_rdata[21]
*204 s_axi_rdata[20]
*205 s_axi_rdata[19]
*206 s_axi_rdata[18]
*207 s_axi_rdata[17]
*208 s_axi_rdata[16]
*209 s_axi_rdata[15]
*210 s_axi_rdata[14]
*211 s_axi_rdata[13]
*212 s_axi_rdata[12]
*213 s_axi_rdata[11]
*214 s_axi_rdata[10]
*215 s_axi_rdata[9]
*216 s_axi_rdata[8]
*217 s_axi_rdata[7]
*218 s_axi_rdata[6]
*219 s_axi_rdata[5]
*220 s_axi_rdata[4]
*221 s_axi_rdata[3]
*222 s_axi_rdata[2]
*223 s_axi_rdata[1]
*224 s_axi_rdata[0]
*225 s_axi_rresp[1]
*226 s_axi_rresp[0]
*227 s_axi_rlast
*228 s_axi_rvalid
*229 mem_addr[2]
*230 mem_addr[3]
*231 mem_addr[4]
*232 mem_addr[5]
*233 mem_addr[6]
*234 mem_addr[7]
*235 mem_addr[8]
*236 mem_addr[9]
*237 mem_addr[10]
*238 mem_addr[11]
*239 mem_addr[12]
*240 mem_addr[13]
*241 mem_addr[14]
*242 mem_addr[15]
*243 mem_rdata[0]
*244 mem_rdata[1]
*245 mem_rdata[2]
*246 mem_rdata[3]
*247 mem_rdata[4]
*248 mem_rdata[5]
*249 mem_rdata[6]
*250 mem_rdata[7]
*251 mem_rdata[8]
*252 mem_rdata[9]
*253 mem_rdata[10]
*254 mem_rdata[11]
*255 mem_rdata[12]
*256 mem_rdata[13]
*257 mem_rdata[14]
*258 mem_rdata[15]
*259 mem_rdata[16]
*260 mem_rdata[17]
*261 mem_rdata[18]
*262 mem_rdata[19]
*263 mem_rdata[20]
*264 mem_rdata[21]
*265 mem_rdata[22]
*266 mem_rdata[23]
*267 mem_rdata[24]
*268 mem_rdata[25]
*269 mem_rdata[26]
*270 mem_rdata[27]
*271 mem_rdata[28]
*272 mem_rdata[29]
*273 mem_rdata[30]
*274 mem_rdata[31]
*275 mem_wdata[0]
*276 mem_wdata[1]
*277 mem_wdata[2]
*278 mem_wdata[3]
*279 mem_wdata[4]
*280 mem_wdata[5]
*281 mem_wdata[6]
*282 mem_wdata[7]
*283 mem_wdata[8]
*284 mem_wdata[9]
*285 mem_wdata[10]
*286 mem_wdata[11]
*287 mem_wdata[12]
*288 mem_wdata[13]
*289 mem_wdata[14]
*290 mem_wdata[15]
*291 mem_wdata[16]
*292 mem_wdata[17]
*293 mem_wdata[18]
*294 mem_wdata[19]
*295 mem_wdata[20]
*296 mem_wdata[21]
*297 mem_wdata[22]
*298 mem_wdata[23]
*299 mem_wdata[24]
*300 mem_wdata[25]
*301 mem_wdata[26]
*302 mem_wdata[27]
*303 mem_wdata[28]
*304 mem_wdata[29]
*305 mem_wdata[30]
*306 mem_wdata[31]
*307 r_addr_reg[2]
*308 r_addr_reg[3]
*309 r_addr_reg[4]
*310 r_addr_reg[5]
*311 r_addr_reg[6]
*312 r_addr_reg[7]
*313 r_addr_reg[8]
*314 r_addr_reg[9]
*315 r_addr_reg[10]
*316 r_addr_reg[11]
*317 r_addr_reg[12]
*318 r_addr_reg[13]
*319 r_addr_reg[14]
*320 r_addr_reg[15]
*321 s_axi_rid[0]
*322 s_axi_rid[1]
*323 s_axi_rid[2]
*324 s_axi_rid[3]
*325 s_axi_rid[4]
*326 s_axi_awready
*327 s_axi_bid[0]
*328 s_axi_bid[1]
*329 s_axi_bid[2]
*330 s_axi_bid[3]
*331 s_axi_bid[4]
*332 s_axi_bresp[1]
*333 s_axi_bvalid
*334 s_axi_rdata[0]
*335 s_axi_rdata[1]
*336 s_axi_rdata[2]
*337 s_axi_rdata[3]
*338 s_axi_rdata[4]
*339 s_axi_rdata[5]
*340 s_axi_rdata[6]
*341 s_axi_rdata[7]
*342 s_axi_rdata[8]
*343 s_axi_rdata[9]
*344 s_axi_rdata[10]
*345 s_axi_rdata[11]
*346 s_axi_rdata[12]
*347 s_axi_rdata[13]
*348 s_axi_rdata[14]
*349 s_axi_rdata[15]
*350 s_axi_rdata[16]
*351 s_axi_rdata[17]
*352 s_axi_rdata[18]
*353 s_axi_rdata[19]
*354 s_axi_rdata[20]
*355 s_axi_rdata[21]
*356 s_axi_rdata[22]
*357 s_axi_rdata[23]
*358 s_axi_rdata[24]
*359 s_axi_rdata[25]
*360 s_axi_rdata[26]
*361 s_axi_rdata[27]
*362 s_axi_rdata[28]
*363 s_axi_rdata[29]
*364 s_axi_rdata[30]
*365 s_axi_rdata[31]
*366 s_axi_rlast
*367 s_axi_rresp[1]
*368 s_axi_rvalid
*369 s_axi_wready
*370 state[0]
*371 state[1]
*372 state[2]
*373 state[3]
*374 w_addr_reg[2]
*375 w_addr_reg[3]
*376 w_addr_reg[4]
*377 w_addr_reg[5]
*378 w_addr_reg[6]
*379 w_addr_reg[7]
*380 w_addr_reg[8]
*381 w_addr_reg[9]
*382 w_addr_reg[10]
*383 w_addr_reg[11]
*384 w_addr_reg[12]
*385 w_addr_reg[13]
*386 w_addr_reg[14]
*387 w_addr_reg[15]
*388 wdata_hold[0]
*389 wdata_hold[1]
*390 wdata_hold[2]
*391 wdata_hold[3]
*392 wdata_hold[4]
*393 wdata_hold[5]
*394 wdata_hold[6]
*395 wdata_hold[7]
*396 wdata_hold[8]
*397 wdata_hold[9]
*398 wdata_hold[10]
*399 wdata_hold[11]
*400 wdata_hold[12]
*401 wdata_hold[13]
*402 wdata_hold[14]
*403 wdata_hold[15]
*404 wdata_hold[16]
*405 wdata_hold[17]
*406 wdata_hold[18]
*407 wdata_hold[19]
*408 wdata_hold[20]
*409 wdata_hold[21]
*410 wdata_hold[22]
*411 wdata_hold[23]
*412 wdata_hold[24]
*413 wdata_hold[25]
*414 wdata_hold[26]
*415 wdata_hold[27]
*416 wdata_hold[28]
*417 wdata_hold[29]
*418 wdata_hold[30]
*419 wdata_hold[31]
*420 wstrb_hold[0]
*421 wstrb_hold[1]
*422 wstrb_hold[2]
*423 wstrb_hold[3]
*424 r_count_reg[0]
*425 r_count_reg[1]
*426 r_count_reg[2]
*427 r_count_reg[3]
*428 r_count_reg[4]
*429 r_count_reg[5]
*430 r_count_reg[6]
*431 r_count_reg[7]
*432 r_error_reg
*433 r_incr_reg
*434 r_len_reg[0]
*435 r_len_reg[1]
*436 r_len_reg[2]
*437 r_len_reg[3]
*438 r_len_reg[4]
*439 r_len_reg[5]
*440 r_len_reg[6]
*441 r_len_reg[7]
*442 w_count_reg[0]
*443 w_count_reg[1]
*444 w_count_reg[2]
*445 w_count_reg[3]
*446 w_count_reg[4]
*447 w_count_reg[5]
*448 w_count_reg[6]
*449 w_count_reg[7]
*450 w_drop_reg
*451 w_error_reg
*452 w_finish_hold
*453 w_incr_reg
*454 w_len_reg[0]
*455 w_len_reg[1]
*456 w_len_reg[2]
*457 w_len_reg[3]
*458 w_len_reg[4]
*459 w_len_reg[5]
*460 w_len_reg[6]
*461 w_len_reg[7]
*462 n_1
*463 n_2
*464 n_3
*465 n_4
*466 n_5
*467 n_6
*468 n_7
*469 n_8
*470 n_9
*471 n_10
*472 n_11
*473 n_12
*474 n_13
*475 n_14
*476 n_15
*477 n_16
*478 n_17
*479 n_18
*480 n_19
*481 n_20
*482 n_21
*483 n_22
*484 n_23
*485 n_24
*486 n_25
*487 n_26
*488 n_27
*489 n_28
*490 n_29
*491 n_30
*492 n_31
*493 n_32
*494 n_33
*495 n_34
*496 n_35
*497 n_36
*498 n_37
*499 n_38
*500 n_39
*501 n_40
*502 n_41
*503 n_42
*504 n_43
*505 n_44
*506 n_45
*507 n_46
*508 n_47
*509 n_49
*510 n_50
*511 n_51
*512 rst_n
*513 n_54
*514 n_55
*515 n_56
*516 n_57
*517 n_58
*518 n_60
*519 n_61
*520 n_62
*521 n_63
*522 n_64
*523 n_66
*524 n_67
*525 n_68
*526 n_69
*527 n_70
*528 n_71
*529 n_72
*530 n_73
*531 n_74
*532 n_75
*533 n_76
*534 n_77
*535 n_78
*536 n_79
*537 n_80
*538 n_81
*539 n_82
*540 n_83
*541 n_84
*542 n_85
*543 n_86
*544 n_87
*545 n_88
*546 n_89
*547 n_90
*548 n_91
*549 n_92
*550 n_93
*551 n_94
*552 n_95
*553 n_98
*554 n_99
*555 n_100
*556 n_101
*557 n_102
*558 n_103
*559 n_104
*560 n_105
*561 n_106
*562 n_107
*563 n_108
*564 n_109
*565 n_110
*566 n_112
*567 n_113
*568 n_114
*569 n_115
*570 n_116
*571 n_117
*572 n_118
*573 n_119
*574 n_120
*575 n_121
*576 n_122
*577 n_123
*578 n_124
*579 n_126
*580 n_127
*581 n_128
*582 n_129
*583 n_130
*584 n_131
*585 n_132
*586 n_133
*587 n_134
*588 n_136
*589 n_138
*590 n_140
*591 n_141
*592 n_142
*593 n_143
*594 n_144
*595 n_145
*596 n_146
*597 n_147
*598 n_148
*599 n_149
*600 n_150
*601 n_151
*602 n_152
*603 n_153
*604 n_154
*605 n_155
*606 n_157
*607 n_158
*608 n_159
*609 n_160
*610 n_161
*611 n_162
*612 n_163
*613 n_164
*614 n_165
*615 n_166
*616 n_167
*617 n_168
*618 n_169
*619 n_170
*620 n_171
*621 n_172
*622 n_173
*623 n_174
*624 n_175
*625 n_176
*626 n_177
*627 n_178
*628 n_179
*629 n_180
*630 n_181
*631 n_182
*632 n_183
*633 n_184
*634 n_185
*635 n_186
*636 n_187
*637 n_188
*638 n_189
*639 n_190
*640 n_191
*641 n_192
*642 n_193
*643 n_194
*644 n_195
*645 n_196
*646 n_197
*647 n_198
*648 n_199
*649 n_200
*650 n_201
*651 n_202
*652 n_203
*653 n_204
*654 n_205
*655 n_206
*656 n_207
*657 n_208
*658 n_209
*659 n_210
*660 n_211
*661 n_212
*662 n_213
*663 n_214
*664 n_215
*665 n_216
*666 n_217
*667 n_218
*668 n_219
*669 n_220
*670 n_221
*671 n_222
*672 n_223
*673 n_224
*674 n_225
*675 n_226
*676 n_227
*677 n_228
*678 n_229
*679 n_230
*680 n_231
*681 n_232
*682 n_233
*683 n_234
*684 n_235
*685 n_236
*686 n_237
*687 n_238
*688 n_239
*689 n_240
*690 n_241
*691 n_242
*692 n_243
*693 n_244
*694 n_245
*695 n_246
*696 n_247
*697 n_248
*698 n_249
*699 n_250
*700 n_251
*701 n_252
*702 n_253
*703 n_254
*704 n_255
*705 n_256
*706 n_257
*707 n_258
*708 n_259
*709 n_260
*710 n_261
*711 n_262
*712 n_263
*713 n_264
*714 n_265
*715 n_266
*716 n_267
*717 n_268
*718 n_269
*719 n_270
*720 n_271
*721 n_272
*722 n_273
*723 n_274
*724 n_275
*725 n_276
*726 n_277
*727 n_278
*728 n_279
*729 n_280
*730 n_281
*731 n_282
*732 n_283
*733 n_284
*734 n_285
*735 n_286
*736 n_287
*737 n_288
*738 n_289
*739 n_290
*740 n_291
*741 n_292
*742 n_293
*743 n_294
*744 n_295
*745 n_296
*746 n_297
*747 n_298
*748 n_299
*749 n_300
*750 n_301
*751 n_302
*752 n_303
*753 n_304
*754 n_305
*755 n_306
*756 n_307
*757 n_308
*758 n_309
*759 n_310
*760 n_311
*761 n_312
*762 n_313
*763 n_314
*764 n_315
*765 n_316
*766 n_317
*767 n_318
*768 n_319
*769 n_320
*770 n_321
*771 n_322
*772 n_323
*773 n_324
*774 n_325
*775 n_326
*776 n_327
*777 n_328
*778 n_329
*779 n_330
*780 n_331
*781 n_332
*782 n_333
*783 n_334
*784 n_335
*785 n_336
*786 n_337
*787 n_338
*788 n_339
*789 n_340
*790 n_341
*791 n_342
*792 n_343
*793 n_344
*794 n_345
*795 n_346
*796 n_347
*797 n_348
*798 n_349
*799 n_350
*800 n_351
*801 n_352
*802 n_353
*803 n_354
*804 n_355
*805 n_357
*806 n_358
*807 n_359
*808 n_360
*809 n_361
*810 n_362
*811 n_363
*812 n_364
*813 n_365
*814 n_366
*815 n_367
*816 n_368
*817 n_369
*818 n_370
*819 n_371
*820 n_372
*821 n_373
*822 n_374
*823 n_375
*824 n_376
*825 n_377
*826 n_378
*827 n_379
*828 n_380
*829 n_381
*830 n_382
*831 n_383
*832 n_384
*833 n_385
*834 n_386
*835 n_387
*836 n_388
*837 n_389
*838 n_390
*839 n_391
*840 n_392
*841 n_393
*842 n_394
*843 n_395
*844 n_396
*845 n_397
*846 n_398
*847 n_399
*848 n_400
*849 n_401
*850 n_402
*851 n_403
*852 n_404
*853 n_405
*854 n_406
*855 n_407
*856 n_408
*857 n_409
*858 n_410
*859 n_411
*860 n_412
*861 n_413
*862 n_414
*863 n_415
*864 n_416
*865 n_417
*866 n_418
*867 n_419
*868 n_420
*869 n_421
*870 n_422
*871 n_423
*872 n_424
*873 n_425
*874 n_426
*875 n_427
*876 n_428
*877 n_429
*878 n_430
*879 n_431
*880 n_432
*881 n_433
*882 n_434
*883 n_435
*884 n_436
*885 n_437
*886 n_438
*887 n_439
*888 n_440
*889 n_441
*890 n_442
*891 n_443
*892 n_444
*893 n_445
*894 n_446
*895 n_447
*896 n_448
*897 n_449
*898 n_450
*899 n_451
*900 n_452
*901 n_453
*902 n_454
*903 n_455
*904 n_456
*905 n_457
*906 n_458
*907 n_459
*908 n_460
*909 n_461
*910 n_462
*911 n_463
*912 n_464
*913 n_465
*914 n_466
*915 n_467
*916 n_468
*917 n_469
*918 n_470
*919 n_471
*920 n_472
*921 n_473
*922 n_474
*923 n_475
*924 n_476
*925 n_477
*926 n_478
*927 n_479
*928 n_480
*929 n_481
*930 n_482
*931 n_483
*932 n_484
*933 n_485
*934 n_486
*935 n_487
*936 n_488
*937 n_489
*938 n_490
*939 n_491
*940 n_492
*941 n_493
*942 n_494
*943 n_495
*944 n_496
*945 n_497
*946 n_498
*947 n_499
*948 n_500
*949 n_501
*950 n_502
*951 n_503
*952 n_504
*953 n_505
*954 n_506
*955 n_507
*956 n_508
*957 n_509
*958 n_510
*959 n_511
*960 n_512
*961 n_513
*962 n_514
*963 n_515
*964 n_516
*965 n_517
*966 n_518
*967 n_519
*968 n_520
*969 n_521
*970 n_522
*971 n_523
*972 n_524
*973 n_525
*974 n_526
*975 n_527
*976 n_528
*977 n_529
*978 n_530
*979 n_531
*980 n_532
*981 n_533
*982 n_534
*983 n_535
*984 n_536
*985 n_537
*986 n_538
*987 n_539
*988 n_540
*989 n_541
*990 n_542
*991 n_543
*992 n_544
*993 n_545
*994 n_546
*995 n_547
*996 n_548
*997 n_549
*998 n_550
*999 n_551
*1000 n_552
*1001 n_553
*1002 n_554
*1003 n_555
*1004 n_556
*1005 n_557
*1006 n_558
*1007 n_559
*1008 n_560
*1009 n_561
*1010 n_562
*1011 n_563
*1012 n_564
*1013 n_565
*1014 n_566
*1015 n_567
*1016 n_568
*1017 n_569
*1018 n_570
*1019 n_571
*1020 n_572
*1021 n_573
*1022 n_574
*1023 n_575
*1024 n_576
*1025 n_577
*1026 n_578
*1027 n_579
*1028 n_580
*1029 n_581
*1030 n_582
*1031 n_583
*1032 n_584
*1033 n_585
*1034 n_586
*1035 n_587
*1036 n_588
*1037 n_589
*1038 n_590
*1039 n_591
*1040 n_592
*1041 n_593
*1042 n_594
*1043 n_595
*1044 n_596
*1045 n_597
*1046 n_598
*1047 n_599
*1048 n_600
*1049 n_601
*1050 n_602
*1051 n_603
*1052 n_604
*1053 n_605
*1054 n_606
*1055 n_607
*1056 n_608
*1057 n_609
*1058 n_610
*1059 n_611
*1060 n_612
*1061 n_613
*1062 n_616
*1063 n_618
*1064 n_619
*1065 n_620
*1066 n_621
*1067 n_622
*1068 n_623
*1069 s_axi_awsize[2]
*1070 s_axi_awsize[1]
*1071 s_axi_awsize[0]
*1072 s_axi_awburst[1]
*1073 s_axi_awburst[0]
*1074 s_axi_arburst[1]
*1075 s_axi_arburst[0]
*1076 s_axi_arsize[2]
*1077 s_axi_arsize[1]
*1078 s_axi_arsize[0]
*1079 s_axi_rready
*1080 s_axi_bready
*1081 s_axi_wlast
*1082 s_axi_wvalid
*1083 s_axi_arvalid
*1084 s_axi_awvalid
*1085 clk
*1086 s_axi_arlen[7]
*1087 s_axi_arlen[6]
*1088 s_axi_arlen[5]
*1089 s_axi_arlen[4]
*1090 s_axi_arlen[3]
*1091 s_axi_arlen[2]
*1092 s_axi_arlen[1]
*1093 s_axi_arlen[0]
*1094 s_axi_awlen[7]
*1095 s_axi_awlen[6]
*1096 s_axi_awlen[5]
*1097 s_axi_awlen[4]
*1098 s_axi_awlen[3]
*1099 s_axi_awlen[2]
*1100 s_axi_awlen[1]
*1101 s_axi_awlen[0]
*1102 s_axi_awid[4]
*1103 s_axi_awid[3]
*1104 s_axi_awid[2]
*1105 s_axi_awid[1]
*1106 s_axi_awid[0]
*1107 s_axi_awaddr[15]
*1108 s_axi_awaddr[14]
*1109 s_axi_awaddr[13]
*1110 s_axi_awaddr[12]
*1111 s_axi_awaddr[11]
*1112 s_axi_awaddr[10]
*1113 s_axi_awaddr[9]
*1114 s_axi_awaddr[8]
*1115 s_axi_awaddr[7]
*1116 s_axi_awaddr[6]
*1117 s_axi_awaddr[5]
*1118 s_axi_awaddr[4]
*1119 s_axi_awaddr[3]
*1120 s_axi_awaddr[2]
*1121 s_axi_awaddr[1]
*1122 s_axi_awaddr[0]
*1123 s_axi_wdata[31]
*1124 s_axi_wdata[30]
*1125 s_axi_wdata[29]
*1126 s_axi_wdata[28]
*1127 s_axi_wdata[27]
*1128 s_axi_wdata[26]
*1129 s_axi_wdata[25]
*1130 s_axi_wdata[24]
*1131 s_axi_wdata[23]
*1132 s_axi_wdata[22]
*1133 s_axi_wdata[21]
*1134 s_axi_wdata[20]
*1135 s_axi_wdata[19]
*1136 s_axi_wdata[18]
*1137 s_axi_wdata[17]
*1138 s_axi_wdata[16]
*1139 s_axi_wdata[15]
*1140 s_axi_wdata[14]
*1141 s_axi_wdata[13]
*1142 s_axi_wdata[12]
*1143 s_axi_wdata[11]
*1144 s_axi_wdata[10]
*1145 s_axi_wdata[9]
*1146 s_axi_wdata[8]
*1147 s_axi_wdata[7]
*1148 s_axi_wdata[6]
*1149 s_axi_wdata[5]
*1150 s_axi_wdata[4]
*1151 s_axi_wdata[3]
*1152 s_axi_wdata[2]
*1153 s_axi_wdata[1]
*1154 s_axi_wdata[0]
*1155 s_axi_wstrb[3]
*1156 s_axi_wstrb[2]
*1157 s_axi_wstrb[1]
*1158 s_axi_wstrb[0]
*1159 s_axi_arid[4]
*1160 s_axi_arid[3]
*1161 s_axi_arid[2]
*1162 s_axi_arid[1]
*1163 s_axi_arid[0]
*1164 s_axi_araddr[15]
*1165 s_axi_araddr[14]
*1166 s_axi_araddr[13]
*1167 s_axi_araddr[12]
*1168 s_axi_araddr[11]
*1169 s_axi_araddr[10]
*1170 s_axi_araddr[9]
*1171 s_axi_araddr[8]
*1172 s_axi_araddr[7]
*1173 s_axi_araddr[6]
*1174 s_axi_araddr[5]
*1175 s_axi_araddr[4]
*1176 s_axi_araddr[3]
*1177 s_axi_araddr[2]
*1178 s_axi_araddr[1]
*1179 s_axi_araddr[0]
*1180 n_768
*1181 n_769
*1182 n_770
*1183 n_771
*1184 n_772
*1185 n_773
*1186 n_774
*1187 n_775
*1188 n_776
*1189 n_777
*1190 u_mem/bank_rdata[0][0]
*1191 u_mem/bank_rdata[0][1]
*1192 u_mem/bank_rdata[0][2]
*1193 u_mem/bank_rdata[0][3]
*1194 u_mem/bank_rdata[0][4]
*1195 u_mem/bank_rdata[0][5]
*1196 u_mem/bank_rdata[0][6]
*1197 u_mem/bank_rdata[0][7]
*1198 u_mem/bank_rdata[0][8]
*1199 u_mem/bank_rdata[0][9]
*1200 u_mem/bank_rdata[0][10]
*1201 u_mem/bank_rdata[0][11]
*1202 u_mem/bank_rdata[0][12]
*1203 u_mem/bank_rdata[0][13]
*1204 u_mem/bank_rdata[0][14]
*1205 u_mem/bank_rdata[0][15]
*1206 u_mem/bank_rdata[0][16]
*1207 u_mem/bank_rdata[0][17]
*1208 u_mem/bank_rdata[0][18]
*1209 u_mem/bank_rdata[0][19]
*1210 u_mem/bank_rdata[0][20]
*1211 u_mem/bank_rdata[0][21]
*1212 u_mem/bank_rdata[0][22]
*1213 u_mem/bank_rdata[0][23]
*1214 u_mem/bank_rdata[0][24]
*1215 u_mem/bank_rdata[0][25]
*1216 u_mem/bank_rdata[0][26]
*1217 u_mem/bank_rdata[0][27]
*1218 u_mem/bank_rdata[0][28]
*1219 u_mem/bank_rdata[0][29]
*1220 u_mem/bank_rdata[0][30]
*1221 u_mem/bank_rdata[0][31]
*1222 u_mem/bank_rdata[1][0]
*1223 u_mem/bank_rdata[1][1]
*1224 u_mem/bank_rdata[1][2]
*1225 u_mem/bank_rdata[1][3]
*1226 u_mem/bank_rdata[1][4]
*1227 u_mem/bank_rdata[1][5]
*1228 u_mem/bank_rdata[1][6]
*1229 u_mem/bank_rdata[1][7]
*1230 u_mem/bank_rdata[1][8]
*1231 u_mem/bank_rdata[1][9]
*1232 u_mem/bank_rdata[1][10]
*1233 u_mem/bank_rdata[1][11]
*1234 u_mem/bank_rdata[1][12]
*1235 u_mem/bank_rdata[1][13]
*1236 u_mem/bank_rdata[1][14]
*1237 u_mem/bank_rdata[1][15]
*1238 u_mem/bank_rdata[1][16]
*1239 u_mem/bank_rdata[1][17]
*1240 u_mem/bank_rdata[1][18]
*1241 u_mem/bank_rdata[1][19]
*1242 u_mem/bank_rdata[1][20]
*1243 u_mem/bank_rdata[1][21]
*1244 u_mem/bank_rdata[1][22]
*1245 u_mem/bank_rdata[1][23]
*1246 u_mem/bank_rdata[1][24]
*1247 u_mem/bank_rdata[1][25]
*1248 u_mem/bank_rdata[1][26]
*1249 u_mem/bank_rdata[1][27]
*1250 u_mem/bank_rdata[1][28]
*1251 u_mem/bank_rdata[1][29]
*1252 u_mem/bank_rdata[1][30]
*1253 u_mem/bank_rdata[1][31]
*1254 u_mem/bank_rdata[2][0]
*1255 u_mem/bank_rdata[2][1]
*1256 u_mem/bank_rdata[2][2]
*1257 u_mem/bank_rdata[2][3]
*1258 u_mem/bank_rdata[2][4]
*1259 u_mem/bank_rdata[2][5]
*1260 u_mem/bank_rdata[2][6]
*1261 u_mem/bank_rdata[2][7]
*1262 u_mem/bank_rdata[2][8]
*1263 u_mem/bank_rdata[2][9]
*1264 u_mem/bank_rdata[2][10]
*1265 u_mem/bank_rdata[2][11]
*1266 u_mem/bank_rdata[2][12]
*1267 u_mem/bank_rdata[2][13]
*1268 u_mem/bank_rdata[2][14]
*1269 u_mem/bank_rdata[2][15]
*1270 u_mem/bank_rdata[2][16]
*1271 u_mem/bank_rdata[2][17]
*1272 u_mem/bank_rdata[2][18]
*1273 u_mem/bank_rdata[2][19]
*1274 u_mem/bank_rdata[2][20]
*1275 u_mem/bank_rdata[2][21]
*1276 u_mem/bank_rdata[2][22]
*1277 u_mem/bank_rdata[2][23]
*1278 u_mem/bank_rdata[2][24]
*1279 u_mem/bank_rdata[2][25]
*1280 u_mem/bank_rdata[2][26]
*1281 u_mem/bank_rdata[2][27]
*1282 u_mem/bank_rdata[2][28]
*1283 u_mem/bank_rdata[2][29]
*1284 u_mem/bank_rdata[2][30]
*1285 u_mem/bank_rdata[2][31]
*1286 u_mem/bank_rdata[3][0]
*1287 u_mem/bank_rdata[3][1]
*1288 u_mem/bank_rdata[3][2]
*1289 u_mem/bank_rdata[3][3]
*1290 u_mem/bank_rdata[3][4]
*1291 u_mem/bank_rdata[3][5]
*1292 u_mem/bank_rdata[3][6]
*1293 u_mem/bank_rdata[3][7]
*1294 u_mem/bank_rdata[3][8]
*1295 u_mem/bank_rdata[3][9]
*1296 u_mem/bank_rdata[3][10]
*1297 u_mem/bank_rdata[3][11]
*1298 u_mem/bank_rdata[3][12]
*1299 u_mem/bank_rdata[3][13]
*1300 u_mem/bank_rdata[3][14]
*1301 u_mem/bank_rdata[3][15]
*1302 u_mem/bank_rdata[3][16]
*1303 u_mem/bank_rdata[3][17]
*1304 u_mem/bank_rdata[3][18]
*1305 u_mem/bank_rdata[3][19]
*1306 u_mem/bank_rdata[3][20]
*1307 u_mem/bank_rdata[3][21]
*1308 u_mem/bank_rdata[3][22]
*1309 u_mem/bank_rdata[3][23]
*1310 u_mem/bank_rdata[3][24]
*1311 u_mem/bank_rdata[3][25]
*1312 u_mem/bank_rdata[3][26]
*1313 u_mem/bank_rdata[3][27]
*1314 u_mem/bank_rdata[3][28]
*1315 u_mem/bank_rdata[3][29]
*1316 u_mem/bank_rdata[3][30]
*1317 u_mem/bank_rdata[3][31]
*1318 u_mem/bank_rdata[4][0]
*1319 u_mem/bank_rdata[4][1]
*1320 u_mem/bank_rdata[4][2]
*1321 u_mem/bank_rdata[4][3]
*1322 u_mem/bank_rdata[4][4]
*1323 u_mem/bank_rdata[4][5]
*1324 u_mem/bank_rdata[4][6]
*1325 u_mem/bank_rdata[4][7]
*1326 u_mem/bank_rdata[4][8]
*1327 u_mem/bank_rdata[4][9]
*1328 u_mem/bank_rdata[4][10]
*1329 u_mem/bank_rdata[4][11]
*1330 u_mem/bank_rdata[4][12]
*1331 u_mem/bank_rdata[4][13]
*1332 u_mem/bank_rdata[4][14]
*1333 u_mem/bank_rdata[4][15]
*1334 u_mem/bank_rdata[4][16]
*1335 u_mem/bank_rdata[4][17]
*1336 u_mem/bank_rdata[4][18]
*1337 u_mem/bank_rdata[4][19]
*1338 u_mem/bank_rdata[4][20]
*1339 u_mem/bank_rdata[4][21]
*1340 u_mem/bank_rdata[4][22]
*1341 u_mem/bank_rdata[4][23]
*1342 u_mem/bank_rdata[4][24]
*1343 u_mem/bank_rdata[4][25]
*1344 u_mem/bank_rdata[4][26]
*1345 u_mem/bank_rdata[4][27]
*1346 u_mem/bank_rdata[4][28]
*1347 u_mem/bank_rdata[4][29]
*1348 u_mem/bank_rdata[4][30]
*1349 u_mem/bank_rdata[4][31]
*1350 u_mem/bank_rdata[5][0]
*1351 u_mem/bank_rdata[5][1]
*1352 u_mem/bank_rdata[5][2]
*1353 u_mem/bank_rdata[5][3]
*1354 u_mem/bank_rdata[5][4]
*1355 u_mem/bank_rdata[5][5]
*1356 u_mem/bank_rdata[5][6]
*1357 u_mem/bank_rdata[5][7]
*1358 u_mem/bank_rdata[5][8]
*1359 u_mem/bank_rdata[5][9]
*1360 u_mem/bank_rdata[5][10]
*1361 u_mem/bank_rdata[5][11]
*1362 u_mem/bank_rdata[5][12]
*1363 u_mem/bank_rdata[5][13]
*1364 u_mem/bank_rdata[5][14]
*1365 u_mem/bank_rdata[5][15]
*1366 u_mem/bank_rdata[5][16]
*1367 u_mem/bank_rdata[5][17]
*1368 u_mem/bank_rdata[5][18]
*1369 u_mem/bank_rdata[5][19]
*1370 u_mem/bank_rdata[5][20]
*1371 u_mem/bank_rdata[5][21]
*1372 u_mem/bank_rdata[5][22]
*1373 u_mem/bank_rdata[5][23]
*1374 u_mem/bank_rdata[5][24]
*1375 u_mem/bank_rdata[5][25]
*1376 u_mem/bank_rdata[5][26]
*1377 u_mem/bank_rdata[5][27]
*1378 u_mem/bank_rdata[5][28]
*1379 u_mem/bank_rdata[5][29]
*1380 u_mem/bank_rdata[5][30]
*1381 u_mem/bank_rdata[5][31]
*1382 u_mem/bank_rdata[6][0]
*1383 u_mem/bank_rdata[6][1]
*1384 u_mem/bank_rdata[6][2]
*1385 u_mem/bank_rdata[6][3]
*1386 u_mem/bank_rdata[6][4]
*1387 u_mem/bank_rdata[6][5]
*1388 u_mem/bank_rdata[6][6]
*1389 u_mem/bank_rdata[6][7]
*1390 u_mem/bank_rdata[6][8]
*1391 u_mem/bank_rdata[6][9]
*1392 u_mem/bank_rdata[6][10]
*1393 u_mem/bank_rdata[6][11]
*1394 u_mem/bank_rdata[6][12]
*1395 u_mem/bank_rdata[6][13]
*1396 u_mem/bank_rdata[6][14]
*1397 u_mem/bank_rdata[6][15]
*1398 u_mem/bank_rdata[6][16]
*1399 u_mem/bank_rdata[6][17]
*1400 u_mem/bank_rdata[6][18]
*1401 u_mem/bank_rdata[6][19]
*1402 u_mem/bank_rdata[6][20]
*1403 u_mem/bank_rdata[6][21]
*1404 u_mem/bank_rdata[6][22]
*1405 u_mem/bank_rdata[6][23]
*1406 u_mem/bank_rdata[6][24]
*1407 u_mem/bank_rdata[6][25]
*1408 u_mem/bank_rdata[6][26]
*1409 u_mem/bank_rdata[6][27]
*1410 u_mem/bank_rdata[6][28]
*1411 u_mem/bank_rdata[6][29]
*1412 u_mem/bank_rdata[6][30]
*1413 u_mem/bank_rdata[6][31]
*1414 u_mem/bank_rdata[7][0]
*1415 u_mem/bank_rdata[7][1]
*1416 u_mem/bank_rdata[7][2]
*1417 u_mem/bank_rdata[7][3]
*1418 u_mem/bank_rdata[7][4]
*1419 u_mem/bank_rdata[7][5]
*1420 u_mem/bank_rdata[7][6]
*1421 u_mem/bank_rdata[7][7]
*1422 u_mem/bank_rdata[7][8]
*1423 u_mem/bank_rdata[7][9]
*1424 u_mem/bank_rdata[7][10]
*1425 u_mem/bank_rdata[7][11]
*1426 u_mem/bank_rdata[7][12]
*1427 u_mem/bank_rdata[7][13]
*1428 u_mem/bank_rdata[7][14]
*1429 u_mem/bank_rdata[7][15]
*1430 u_mem/bank_rdata[7][16]
*1431 u_mem/bank_rdata[7][17]
*1432 u_mem/bank_rdata[7][18]
*1433 u_mem/bank_rdata[7][19]
*1434 u_mem/bank_rdata[7][20]
*1435 u_mem/bank_rdata[7][21]
*1436 u_mem/bank_rdata[7][22]
*1437 u_mem/bank_rdata[7][23]
*1438 u_mem/bank_rdata[7][24]
*1439 u_mem/bank_rdata[7][25]
*1440 u_mem/bank_rdata[7][26]
*1441 u_mem/bank_rdata[7][27]
*1442 u_mem/bank_rdata[7][28]
*1443 u_mem/bank_rdata[7][29]
*1444 u_mem/bank_rdata[7][30]
*1445 u_mem/bank_rdata[7][31]
*1446 u_mem/bank_rdata[8][0]
*1447 u_mem/bank_rdata[8][1]
*1448 u_mem/bank_rdata[8][2]
*1449 u_mem/bank_rdata[8][3]
*1450 u_mem/bank_rdata[8][4]
*1451 u_mem/bank_rdata[8][5]
*1452 u_mem/bank_rdata[8][6]
*1453 u_mem/bank_rdata[8][7]
*1454 u_mem/bank_rdata[8][8]
*1455 u_mem/bank_rdata[8][9]
*1456 u_mem/bank_rdata[8][10]
*1457 u_mem/bank_rdata[8][11]
*1458 u_mem/bank_rdata[8][12]
*1459 u_mem/bank_rdata[8][13]
*1460 u_mem/bank_rdata[8][14]
*1461 u_mem/bank_rdata[8][15]
*1462 u_mem/bank_rdata[8][16]
*1463 u_mem/bank_rdata[8][17]
*1464 u_mem/bank_rdata[8][18]
*1465 u_mem/bank_rdata[8][19]
*1466 u_mem/bank_rdata[8][20]
*1467 u_mem/bank_rdata[8][21]
*1468 u_mem/bank_rdata[8][22]
*1469 u_mem/bank_rdata[8][23]
*1470 u_mem/bank_rdata[8][24]
*1471 u_mem/bank_rdata[8][25]
*1472 u_mem/bank_rdata[8][26]
*1473 u_mem/bank_rdata[8][27]
*1474 u_mem/bank_rdata[8][28]
*1475 u_mem/bank_rdata[8][29]
*1476 u_mem/bank_rdata[8][30]
*1477 u_mem/bank_rdata[8][31]
*1478 u_mem/bank_rdata[9][0]
*1479 u_mem/bank_rdata[9][1]
*1480 u_mem/bank_rdata[9][2]
*1481 u_mem/bank_rdata[9][3]
*1482 u_mem/bank_rdata[9][4]
*1483 u_mem/bank_rdata[9][5]
*1484 u_mem/bank_rdata[9][6]
*1485 u_mem/bank_rdata[9][7]
*1486 u_mem/bank_rdata[9][8]
*1487 u_mem/bank_rdata[9][9]
*1488 u_mem/bank_rdata[9][10]
*1489 u_mem/bank_rdata[9][11]
*1490 u_mem/bank_rdata[9][12]
*1491 u_mem/bank_rdata[9][13]
*1492 u_mem/bank_rdata[9][14]
*1493 u_mem/bank_rdata[9][15]
*1494 u_mem/bank_rdata[9][16]
*1495 u_mem/bank_rdata[9][17]
*1496 u_mem/bank_rdata[9][18]
*1497 u_mem/bank_rdata[9][19]
*1498 u_mem/bank_rdata[9][20]
*1499 u_mem/bank_rdata[9][21]
*1500 u_mem/bank_rdata[9][22]
*1501 u_mem/bank_rdata[9][23]
*1502 u_mem/bank_rdata[9][24]
*1503 u_mem/bank_rdata[9][25]
*1504 u_mem/bank_rdata[9][26]
*1505 u_mem/bank_rdata[9][27]
*1506 u_mem/bank_rdata[9][28]
*1507 u_mem/bank_rdata[9][29]
*1508 u_mem/bank_rdata[9][30]
*1509 u_mem/bank_rdata[9][31]
*1510 u_mem/bank_rdata[10][0]
*1511 u_mem/bank_rdata[10][1]
*1512 u_mem/bank_rdata[10][2]
*1513 u_mem/bank_rdata[10][3]
*1514 u_mem/bank_rdata[10][4]
*1515 u_mem/bank_rdata[10][5]
*1516 u_mem/bank_rdata[10][6]
*1517 u_mem/bank_rdata[10][7]
*1518 u_mem/bank_rdata[10][8]
*1519 u_mem/bank_rdata[10][9]
*1520 u_mem/bank_rdata[10][10]
*1521 u_mem/bank_rdata[10][11]
*1522 u_mem/bank_rdata[10][12]
*1523 u_mem/bank_rdata[10][13]
*1524 u_mem/bank_rdata[10][14]
*1525 u_mem/bank_rdata[10][15]
*1526 u_mem/bank_rdata[10][16]
*1527 u_mem/bank_rdata[10][17]
*1528 u_mem/bank_rdata[10][18]
*1529 u_mem/bank_rdata[10][19]
*1530 u_mem/bank_rdata[10][20]
*1531 u_mem/bank_rdata[10][21]
*1532 u_mem/bank_rdata[10][22]
*1533 u_mem/bank_rdata[10][23]
*1534 u_mem/bank_rdata[10][24]
*1535 u_mem/bank_rdata[10][25]
*1536 u_mem/bank_rdata[10][26]
*1537 u_mem/bank_rdata[10][27]
*1538 u_mem/bank_rdata[10][28]
*1539 u_mem/bank_rdata[10][29]
*1540 u_mem/bank_rdata[10][30]
*1541 u_mem/bank_rdata[10][31]
*1542 u_mem/bank_rdata[11][0]
*1543 u_mem/bank_rdata[11][1]
*1544 u_mem/bank_rdata[11][2]
*1545 u_mem/bank_rdata[11][3]
*1546 u_mem/bank_rdata[11][4]
*1547 u_mem/bank_rdata[11][5]
*1548 u_mem/bank_rdata[11][6]
*1549 u_mem/bank_rdata[11][7]
*1550 u_mem/bank_rdata[11][8]
*1551 u_mem/bank_rdata[11][9]
*1552 u_mem/bank_rdata[11][10]
*1553 u_mem/bank_rdata[11][11]
*1554 u_mem/bank_rdata[11][12]
*1555 u_mem/bank_rdata[11][13]
*1556 u_mem/bank_rdata[11][14]
*1557 u_mem/bank_rdata[11][15]
*1558 u_mem/bank_rdata[11][16]
*1559 u_mem/bank_rdata[11][17]
*1560 u_mem/bank_rdata[11][18]
*1561 u_mem/bank_rdata[11][19]
*1562 u_mem/bank_rdata[11][20]
*1563 u_mem/bank_rdata[11][21]
*1564 u_mem/bank_rdata[11][22]
*1565 u_mem/bank_rdata[11][23]
*1566 u_mem/bank_rdata[11][24]
*1567 u_mem/bank_rdata[11][25]
*1568 u_mem/bank_rdata[11][26]
*1569 u_mem/bank_rdata[11][27]
*1570 u_mem/bank_rdata[11][28]
*1571 u_mem/bank_rdata[11][29]
*1572 u_mem/bank_rdata[11][30]
*1573 u_mem/bank_rdata[11][31]
*1574 u_mem/bank_rdata[12][0]
*1575 u_mem/bank_rdata[12][1]
*1576 u_mem/bank_rdata[12][2]
*1577 u_mem/bank_rdata[12][3]
*1578 u_mem/bank_rdata[12][4]
*1579 u_mem/bank_rdata[12][5]
*1580 u_mem/bank_rdata[12][6]
*1581 u_mem/bank_rdata[12][7]
*1582 u_mem/bank_rdata[12][8]
*1583 u_mem/bank_rdata[12][9]
*1584 u_mem/bank_rdata[12][10]
*1585 u_mem/bank_rdata[12][11]
*1586 u_mem/bank_rdata[12][12]
*1587 u_mem/bank_rdata[12][13]
*1588 u_mem/bank_rdata[12][14]
*1589 u_mem/bank_rdata[12][15]
*1590 u_mem/bank_rdata[12][16]
*1591 u_mem/bank_rdata[12][17]
*1592 u_mem/bank_rdata[12][18]
*1593 u_mem/bank_rdata[12][19]
*1594 u_mem/bank_rdata[12][20]
*1595 u_mem/bank_rdata[12][21]
*1596 u_mem/bank_rdata[12][22]
*1597 u_mem/bank_rdata[12][23]
*1598 u_mem/bank_rdata[12][24]
*1599 u_mem/bank_rdata[12][25]
*1600 u_mem/bank_rdata[12][26]
*1601 u_mem/bank_rdata[12][27]
*1602 u_mem/bank_rdata[12][28]
*1603 u_mem/bank_rdata[12][29]
*1604 u_mem/bank_rdata[12][30]
*1605 u_mem/bank_rdata[12][31]
*1606 u_mem/bank_rdata[13][0]
*1607 u_mem/bank_rdata[13][1]
*1608 u_mem/bank_rdata[13][2]
*1609 u_mem/bank_rdata[13][3]
*1610 u_mem/bank_rdata[13][4]
*1611 u_mem/bank_rdata[13][5]
*1612 u_mem/bank_rdata[13][6]
*1613 u_mem/bank_rdata[13][7]
*1614 u_mem/bank_rdata[13][8]
*1615 u_mem/bank_rdata[13][9]
*1616 u_mem/bank_rdata[13][10]
*1617 u_mem/bank_rdata[13][11]
*1618 u_mem/bank_rdata[13][12]
*1619 u_mem/bank_rdata[13][13]
*1620 u_mem/bank_rdata[13][14]
*1621 u_mem/bank_rdata[13][15]
*1622 u_mem/bank_rdata[13][16]
*1623 u_mem/bank_rdata[13][17]
*1624 u_mem/bank_rdata[13][18]
*1625 u_mem/bank_rdata[13][19]
*1626 u_mem/bank_rdata[13][20]
*1627 u_mem/bank_rdata[13][21]
*1628 u_mem/bank_rdata[13][22]
*1629 u_mem/bank_rdata[13][23]
*1630 u_mem/bank_rdata[13][24]
*1631 u_mem/bank_rdata[13][25]
*1632 u_mem/bank_rdata[13][26]
*1633 u_mem/bank_rdata[13][27]
*1634 u_mem/bank_rdata[13][28]
*1635 u_mem/bank_rdata[13][29]
*1636 u_mem/bank_rdata[13][30]
*1637 u_mem/bank_rdata[13][31]
*1638 u_mem/bank_rdata[14][0]
*1639 u_mem/bank_rdata[14][1]
*1640 u_mem/bank_rdata[14][2]
*1641 u_mem/bank_rdata[14][3]
*1642 u_mem/bank_rdata[14][4]
*1643 u_mem/bank_rdata[14][5]
*1644 u_mem/bank_rdata[14][6]
*1645 u_mem/bank_rdata[14][7]
*1646 u_mem/bank_rdata[14][8]
*1647 u_mem/bank_rdata[14][9]
*1648 u_mem/bank_rdata[14][10]
*1649 u_mem/bank_rdata[14][11]
*1650 u_mem/bank_rdata[14][12]
*1651 u_mem/bank_rdata[14][13]
*1652 u_mem/bank_rdata[14][14]
*1653 u_mem/bank_rdata[14][15]
*1654 u_mem/bank_rdata[14][16]
*1655 u_mem/bank_rdata[14][17]
*1656 u_mem/bank_rdata[14][18]
*1657 u_mem/bank_rdata[14][19]
*1658 u_mem/bank_rdata[14][20]
*1659 u_mem/bank_rdata[14][21]
*1660 u_mem/bank_rdata[14][22]
*1661 u_mem/bank_rdata[14][23]
*1662 u_mem/bank_rdata[14][24]
*1663 u_mem/bank_rdata[14][25]
*1664 u_mem/bank_rdata[14][26]
*1665 u_mem/bank_rdata[14][27]
*1666 u_mem/bank_rdata[14][28]
*1667 u_mem/bank_rdata[14][29]
*1668 u_mem/bank_rdata[14][30]
*1669 u_mem/bank_rdata[14][31]
*1670 u_mem/bank_rdata[15][0]
*1671 u_mem/bank_rdata[15][1]
*1672 u_mem/bank_rdata[15][2]
*1673 u_mem/bank_rdata[15][3]
*1674 u_mem/bank_rdata[15][4]
*1675 u_mem/bank_rdata[15][5]
*1676 u_mem/bank_rdata[15][6]
*1677 u_mem/bank_rdata[15][7]
*1678 u_mem/bank_rdata[15][8]
*1679 u_mem/bank_rdata[15][9]
*1680 u_mem/bank_rdata[15][10]
*1681 u_mem/bank_rdata[15][11]
*1682 u_mem/bank_rdata[15][12]
*1683 u_mem/bank_rdata[15][13]
*1684 u_mem/bank_rdata[15][14]
*1685 u_mem/bank_rdata[15][15]
*1686 u_mem/bank_rdata[15][16]
*1687 u_mem/bank_rdata[15][17]
*1688 u_mem/bank_rdata[15][18]
*1689 u_mem/bank_rdata[15][19]
*1690 u_mem/bank_rdata[15][20]
*1691 u_mem/bank_rdata[15][21]
*1692 u_mem/bank_rdata[15][22]
*1693 u_mem/bank_rdata[15][23]
*1694 u_mem/bank_rdata[15][24]
*1695 u_mem/bank_rdata[15][25]
*1696 u_mem/bank_rdata[15][26]
*1697 u_mem/bank_rdata[15][27]
*1698 u_mem/bank_rdata[15][28]
*1699 u_mem/bank_rdata[15][29]
*1700 u_mem/bank_rdata[15][30]
*1701 u_mem/bank_rdata[15][31]
*1702 u_mem/read_bank_q[0]
*1703 u_mem/read_bank_q[1]
*1704 u_mem/read_bank_q[2]
*1705 u_mem/read_bank_q[3]
*1706 u_mem/n_0
*1707 u_mem/n_1
*1708 u_mem/n_2
*1709 u_mem/n_3
*1710 u_mem/n_4
*1711 u_mem/n_5
*1712 u_mem/n_6
*1713 u_mem/n_7
*1714 u_mem/n_8
*1715 u_mem/n_9
*1716 u_mem/n_10
*1717 u_mem/n_11
*1718 u_mem/n_12
*1719 u_mem/n_13
*1720 u_mem/n_14
*1721 u_mem/n_15
*1722 u_mem/n_16
*1723 u_mem/n_17
*1724 u_mem/n_18
*1725 u_mem/n_19
*1726 u_mem/n_20
*1727 u_mem/n_21
*1728 u_mem/n_22
*1729 u_mem/n_23
*1730 u_mem/n_24
*1731 u_mem/n_25
*1732 u_mem/n_26
*1733 u_mem/n_27
*1734 u_mem/n_28
*1735 u_mem/n_29
*1736 u_mem/n_30
*1737 u_mem/n_31
*1738 u_mem/n_32
*1739 u_mem/n_33
*1740 u_mem/n_34
*1741 u_mem/n_35
*1742 u_mem/n_36
*1743 u_mem/n_37
*1744 u_mem/n_38
*1745 u_mem/n_39
*1746 u_mem/n_40
*1747 u_mem/n_41
*1748 u_mem/n_42
*1749 u_mem/n_43
*1750 u_mem/n_44
*1751 u_mem/n_45
*1752 u_mem/n_46
*1753 u_mem/n_47
*1754 u_mem/n_48
*1755 u_mem/n_49
*1756 u_mem/n_50
*1757 u_mem/n_51
*1758 u_mem/n_52
*1759 u_mem/n_53
*1760 u_mem/n_54
*1761 u_mem/n_55
*1762 u_mem/n_56
*1763 u_mem/n_57
*1764 u_mem/n_58
*1765 u_mem/n_59
*1766 u_mem/n_60
*1767 u_mem/n_61
*1768 u_mem/n_62
*1769 u_mem/n_63
*1770 u_mem/n_64
*1771 u_mem/n_65
*1772 u_mem/n_66
*1773 u_mem/n_67
*1774 u_mem/n_68
*1775 u_mem/n_69
*1776 u_mem/n_70
*1777 u_mem/n_71
*1778 u_mem/n_72
*1779 u_mem/n_73
*1780 u_mem/n_74
*1781 u_mem/n_75
*1782 u_mem/n_76
*1783 u_mem/n_77
*1784 u_mem/n_78
*1785 u_mem/n_79
*1786 u_mem/n_80
*1787 u_mem/n_81
*1788 u_mem/n_82
*1789 u_mem/n_83
*1790 u_mem/n_84
*1791 u_mem/n_85
*1792 u_mem/n_86
*1793 u_mem/n_87
*1794 u_mem/n_88
*1795 u_mem/n_89
*1796 u_mem/n_90
*1797 u_mem/n_91
*1798 u_mem/n_92
*1799 u_mem/n_93
*1800 u_mem/n_94
*1801 u_mem/n_95
*1802 u_mem/n_96
*1803 u_mem/n_97
*1804 u_mem/n_98
*1805 u_mem/n_99
*1806 u_mem/n_100
*1807 u_mem/n_101
*1808 u_mem/n_102
*1809 u_mem/n_103
*1810 u_mem/n_104
*1811 u_mem/n_105
*1812 u_mem/n_106
*1813 u_mem/n_107
*1814 u_mem/n_108
*1815 u_mem/n_109
*1816 u_mem/n_110
*1817 u_mem/n_111
*1818 u_mem/n_112
*1819 u_mem/n_113
*1820 u_mem/n_114
*1821 u_mem/n_115
*1822 u_mem/n_116
*1823 u_mem/n_117
*1824 u_mem/n_118
*1825 u_mem/n_119
*1826 u_mem/n_120
*1827 u_mem/n_121
*1828 u_mem/n_122
*1829 u_mem/n_123
*1830 u_mem/n_124
*1831 u_mem/n_125
*1832 u_mem/n_126
*1833 u_mem/n_127
*1834 u_mem/n_128
*1835 u_mem/n_129
*1836 u_mem/n_130
*1837 u_mem/n_131
*1838 u_mem/n_132
*1839 u_mem/n_133
*1840 u_mem/n_134
*1841 u_mem/n_135
*1842 u_mem/n_136
*1843 u_mem/n_137
*1844 u_mem/n_138
*1845 u_mem/n_139
*1846 u_mem/n_140
*1847 u_mem/n_141
*1848 u_mem/n_142
*1849 u_mem/n_143
*1850 u_mem/n_144
*1851 u_mem/n_145
*1852 u_mem/n_146
*1853 u_mem/n_147
*1854 u_mem/n_148
*1855 u_mem/n_149
*1856 u_mem/n_150
*1857 u_mem/n_151
*1858 u_mem/n_152
*1859 u_mem/n_153
*1860 u_mem/n_154
*1861 u_mem/n_155
*1862 u_mem/n_156
*1863 u_mem/n_157
*1864 u_mem/n_158
*1865 u_mem/n_159
*1866 u_mem/n_160
*1867 u_mem/n_161
*1868 u_mem/n_162
*1869 u_mem/n_163
*1870 u_mem/n_164
*1871 u_mem/n_165
*1872 u_mem/n_166
*1873 u_mem/n_167
*1874 u_mem/n_168
*1875 u_mem/n_169
*1876 u_mem/n_170
*1877 u_mem/n_171
*1878 u_mem/n_172
*1879 u_mem/n_173
*1880 u_mem/n_174
*1881 u_mem/n_175
*1882 u_mem/n_176
*1883 u_mem/n_177
*1884 u_mem/n_178
*1885 u_mem/n_179
*1886 u_mem/n_180
*1887 u_mem/n_181
*1888 u_mem/n_182
*1889 u_mem/n_183
*1890 u_mem/n_184
*1891 u_mem/n_185
*1892 u_mem/n_186
*1893 u_mem/n_187
*1894 u_mem/n_188
*1895 u_mem/n_189
*1896 u_mem/n_190
*1897 u_mem/n_191
*1898 u_mem/n_192
*1899 u_mem/n_193
*1900 u_mem/n_194
*1901 u_mem/n_195
*1902 u_mem/n_196
*1903 u_mem/n_197
*1904 u_mem/n_198
*1905 u_mem/n_199
*1906 u_mem/n_200
*1907 u_mem/n_201
*1908 u_mem/n_202
*1909 u_mem/n_203
*1910 u_mem/n_204
*1911 u_mem/n_205
*1912 u_mem/n_206
*1913 u_mem/n_207
*1914 u_mem/n_208
*1915 u_mem/n_209
*1916 u_mem/n_210
*1917 u_mem/n_211
*1918 u_mem/n_212
*1919 u_mem/n_213
*1920 u_mem/n_214
*1921 u_mem/n_215
*1922 u_mem/n_216
*1923 u_mem/n_217
*1924 u_mem/n_218
*1925 u_mem/n_219
*1926 u_mem/n_220
*1927 u_mem/n_221
*1928 u_mem/n_222
*1929 u_mem/n_223
*1930 u_mem/n_224
*1931 u_mem/n_225
*1932 u_mem/n_226
*1933 u_mem/n_227
*1934 u_mem/n_228
*1935 u_mem/n_229
*1936 u_mem/n_230
*1937 u_mem/n_231
*1938 u_mem/n_232
*1939 u_mem/n_233
*1940 u_mem/n_234
*1941 u_mem/n_235
*1942 u_mem/n_236
*1943 u_mem/n_237
*1944 u_mem/n_238
*1945 u_mem/n_239
*1946 u_mem/n_240
*1947 u_mem/n_241
*1948 u_mem/n_242
*1949 u_mem/n_243
*1950 u_mem/n_244
*1951 u_mem/n_245
*1952 u_mem/n_246
*1953 u_mem/n_247
*1954 u_mem/n_248
*1955 u_mem/n_249
*1956 u_mem/n_250
*1957 u_mem/n_251
*1958 u_mem/n_252
*1959 u_mem/n_253
*1960 u_mem/n_254
*1961 u_mem/n_255
*1962 u_mem/n_256
*1963 u_mem/n_257
*1964 u_mem/n_258
*1965 u_mem/n_259
*1966 u_mem/n_260
*1967 u_mem/n_261
*1968 u_mem/n_262
*1969 u_mem/n_263
*1970 u_mem/n_264
*1971 u_mem/n_265
*1972 u_mem/n_266
*1973 u_mem/n_267
*1974 u_mem/n_268
*1975 u_mem/n_269
*1976 u_mem/n_270
*1977 u_mem/n_271
*1978 u_mem/n_272
*1979 u_mem/n_273
*1980 u_mem/n_274
*1981 u_mem/n_275
*1982 u_mem/n_276
*1983 u_mem/n_277
*1984 u_mem/n_278
*1985 u_mem/n_279
*1986 u_mem/n_280
*1987 u_mem/n_281
*1988 u_mem/n_282
*1989 u_mem/n_283
*1990 u_mem/n_284
*1991 u_mem/n_285
*1992 u_mem/n_286
*1993 u_mem/n_287
*1994 u_mem/n_288
*1995 u_mem/n_289
*1996 u_mem/n_290
*1997 u_mem/n_291
*1998 u_mem/n_292
*1999 u_mem/n_293
*2000 u_mem/n_294
*2001 u_mem/n_295
*2002 u_mem/n_296
*2003 u_mem/n_297
*2004 u_mem/n_298
*2005 u_mem/n_299
*2006 u_mem/n_300
*2007 u_mem/n_301
*2008 u_mem/n_302
*2009 u_mem/n_303
*2010 u_mem/n_304
*2011 u_mem/n_305
*2012 u_mem/n_306
*2013 u_mem/n_307
*2014 u_mem/n_308
*2015 u_mem/n_309
*2016 u_mem/n_310
*2017 u_mem/n_311
*2018 u_mem/n_312
*2019 u_mem/n_313
*2020 u_mem/n_314
*2021 u_mem/n_315
*2022 u_mem/n_316
*2023 u_mem/n_317
*2024 u_mem/n_318
*2025 u_mem/n_319
*2026 u_mem/n_320
*2027 u_mem/n_321
*2028 u_mem/n_322
*2029 u_mem/n_323
*2030 u_mem/n_324
*2031 u_mem/n_325
*2032 u_mem/n_326
*2033 u_mem/n_327
*2034 u_mem/n_328
*2035 u_mem/n_329
*2036 u_mem/n_330
*2037 u_mem/n_331
*2038 u_mem/n_332
*2039 u_mem/n_333
*2040 u_mem/n_334
*2041 u_mem/n_335
*2042 u_mem/n_336
*2043 u_mem/n_337
*2044 u_mem/n_338
*2045 u_mem/n_339
*2046 u_mem/n_340
*2047 u_mem/n_341
*2048 u_mem/n_342
*2049 u_mem/n_343
*2050 u_mem/n_344
*2051 u_mem/n_345
*2052 u_mem/n_346
*2053 u_mem/n_347
*2054 u_mem/n_348
*2055 u_mem/n_349
*2056 u_mem/n_350
*2057 u_mem/n_351
*2058 u_mem/n_352
*2059 u_mem/n_353
*2060 u_mem/n_354
*2061 u_mem/n_355
*2062 u_mem/n_356
*2063 u_mem/n_357
*2064 u_mem/n_358
*2065 u_mem/n_359
*2066 u_mem/n_360
*2067 u_mem/n_361
*2068 u_mem/n_362
*2069 u_mem/n_363
*2070 u_mem/n_364
*2071 u_mem/n_365
*2072 u_mem/n_366
*2073 u_mem/n_367
*2074 u_mem/n_368
*2075 u_mem/n_369
*2076 u_mem/n_370
*2077 u_mem/n_371
*2078 u_mem/n_372
*2079 u_mem/n_373
*2080 u_mem/n_407
*2081 u_mem/n_408
*2082 u_mem/n_409
*2083 u_mem/n_410
*2084 u_mem/n_411
*2085 u_mem/n_412
*2086 u_mem/n_413
*2087 u_mem/n_414
*2088 u_mem/n_415
*2089 u_mem/n_416
*2090 u_mem/n_417
*2091 u_mem/n_418
*2092 u_mem/n_419
*2093 u_mem/n_420
*2094 u_mem/n_421
*2095 u_mem/n_456
*2096 u_mem/n_482
*2097 u_mem/G_SRAM_BANK[0].u_sram
*2098 u_mem/G_SRAM_BANK[1].u_sram
*2099 u_mem/G_SRAM_BANK[2].u_sram
*2100 u_mem/G_SRAM_BANK[3].u_sram
*2101 u_mem/G_SRAM_BANK[4].u_sram
*2102 u_mem/G_SRAM_BANK[5].u_sram
*2103 u_mem/G_SRAM_BANK[6].u_sram
*2104 u_mem/G_SRAM_BANK[7].u_sram
*2105 u_mem/G_SRAM_BANK[8].u_sram
*2106 u_mem/G_SRAM_BANK[9].u_sram
*2107 u_mem/G_SRAM_BANK[10].u_sram
*2108 u_mem/G_SRAM_BANK[11].u_sram
*2109 u_mem/G_SRAM_BANK[12].u_sram
*2110 u_mem/G_SRAM_BANK[13].u_sram
*2111 u_mem/G_SRAM_BANK[14].u_sram
*2112 u_mem/G_SRAM_BANK[15].u_sram
*2113 u_mem/g9624__2398
*2114 u_mem/g9625__5107
*2115 u_mem/g9626__6260
*2116 u_mem/g9627__4319
*2117 u_mem/g9628__8428
*2118 u_mem/g9629__5526
*2119 u_mem/g9630__6783
*2120 u_mem/g9631__3680
*2121 u_mem/g9632__1617
*2122 u_mem/g9633__2802
*2123 u_mem/g9634__1705
*2124 u_mem/g9635__5122
*2125 u_mem/g9636__8246
*2126 u_mem/g9637__7098
*2127 u_mem/g9638__6131
*2128 u_mem/g9639__1881
*2129 u_mem/g9640__5115
*2130 u_mem/g9641__7482
*2131 u_mem/g9642__4733
*2132 u_mem/g9643__6161
*2133 u_mem/g9644__9315
*2134 u_mem/g9645__9945
*2135 u_mem/g9646__2883
*2136 u_mem/g9647__2346
*2137 u_mem/g9648__1666
*2138 u_mem/g9649__7410
*2139 u_mem/g9650__6417
*2140 u_mem/g9651__5477
*2141 u_mem/g9652__2398
*2142 u_mem/g9653__5107
*2143 u_mem/g9654__6260
*2144 u_mem/g9655__4319
*2145 u_mem/g9656__8428
*2146 u_mem/g9657__5526
*2147 u_mem/g9658__6783
*2148 u_mem/g9659__3680
*2149 u_mem/g9660__1617
*2150 u_mem/g9661__2802
*2151 u_mem/g9662__1705
*2152 u_mem/g9663__5122
*2153 u_mem/g9664__8246
*2154 u_mem/g9665__7098
*2155 u_mem/g9666__6131
*2156 u_mem/g9667__1881
*2157 u_mem/g9668__5115
*2158 u_mem/g9669__7482
*2159 u_mem/g9670__4733
*2160 u_mem/g9671__6161
*2161 u_mem/g9672__9315
*2162 u_mem/g9673__9945
*2163 u_mem/g9674__2883
*2164 u_mem/g9675__2346
*2165 u_mem/g9676__1666
*2166 u_mem/g9677__7410
*2167 u_mem/g9678__6417
*2168 u_mem/g9679__5477
*2169 u_mem/g9680__2398
*2170 u_mem/g9681__5107
*2171 u_mem/g9682__6260
*2172 u_mem/g9683__4319
*2173 u_mem/g9684__8428
*2174 u_mem/g9685__5526
*2175 u_mem/g9686__6783
*2176 u_mem/g9687__3680
*2177 u_mem/g9688__1617
*2178 u_mem/g9689__2802
*2179 u_mem/g9690__1705
*2180 u_mem/g9691__5122
*2181 u_mem/g9692__8246
*2182 u_mem/g9693__7098
*2183 u_mem/g9694__6131
*2184 u_mem/g9695__1881
*2185 u_mem/g9696__5115
*2186 u_mem/g9697__7482
*2187 u_mem/g9698__4733
*2188 u_mem/g9699__6161
*2189 u_mem/g9700__9315
*2190 u_mem/g9701__9945
*2191 u_mem/g9702__2883
*2192 u_mem/g9703__2346
*2193 u_mem/g9704__1666
*2194 u_mem/g9705__7410
*2195 u_mem/g9706__6417
*2196 u_mem/g9707__5477
*2197 u_mem/g9708__2398
*2198 u_mem/g9709__5107
*2199 u_mem/g9710__6260
*2200 u_mem/g9711__4319
*2201 u_mem/g9712__8428
*2202 u_mem/g9713__5526
*2203 u_mem/g9714__6783
*2204 u_mem/g9715__3680
*2205 u_mem/g9716__1617
*2206 u_mem/g9717__2802
*2207 u_mem/g9718__1705
*2208 u_mem/g9719__5122
*2209 u_mem/g9720__8246
*2210 u_mem/g9721__7098
*2211 u_mem/g9722__6131
*2212 u_mem/g9723__1881
*2213 u_mem/g9724__5115
*2214 u_mem/g9725__7482
*2215 u_mem/g9726__4733
*2216 u_mem/g9727__6161
*2217 u_mem/g9728__9315
*2218 u_mem/g9729__9945
*2219 u_mem/g9730__2883
*2220 u_mem/g9731__2346
*2221 u_mem/g9732__1666
*2222 u_mem/g9733__7410
*2223 u_mem/g9734__6417
*2224 u_mem/g9735__5477
*2225 u_mem/g9736__2398
*2226 u_mem/g9737__5107
*2227 u_mem/g9738__6260
*2228 u_mem/g9739__4319
*2229 u_mem/g9740__8428
*2230 u_mem/g9741__5526
*2231 u_mem/g9742__6783
*2232 u_mem/g9743__3680
*2233 u_mem/g9744__1617
*2234 u_mem/g9745__2802
*2235 u_mem/g9746__1705
*2236 u_mem/g9747__5122
*2237 u_mem/g9748__8246
*2238 u_mem/g9749__7098
*2239 u_mem/g9750__6131
*2240 u_mem/g9751__1881
*2241 u_mem/g9752__5115
*2242 u_mem/g9753__7482
*2243 u_mem/g9754__4733
*2244 u_mem/g9755__6161
*2245 u_mem/g9756__9315
*2246 u_mem/g9757__9945
*2247 u_mem/g9758__2883
*2248 u_mem/g9759__2346
*2249 u_mem/g9760__1666
*2250 u_mem/g9761__7410
*2251 u_mem/g9762__6417
*2252 u_mem/g9763__5477
*2253 u_mem/g9764__2398
*2254 u_mem/g9765__5107
*2255 u_mem/g9766__6260
*2256 u_mem/g9767__4319
*2257 u_mem/g9768__8428
*2258 u_mem/g9769__5526
*2259 u_mem/g9770__6783
*2260 u_mem/g9771__3680
*2261 u_mem/g9772__1617
*2262 u_mem/g9773__2802
*2263 u_mem/g9774__1705
*2264 u_mem/g9775__5122
*2265 u_mem/g9776__8246
*2266 u_mem/g9777__7098
*2267 u_mem/g9778__6131
*2268 u_mem/g9779__1881
*2269 u_mem/g9780__5115
*2270 u_mem/g9781__7482
*2271 u_mem/g9782__4733
*2272 u_mem/g9783__6161
*2273 u_mem/g9784__9315
*2274 u_mem/g9785__9945
*2275 u_mem/g9786__2883
*2276 u_mem/g9787__2346
*2277 u_mem/g9788__1666
*2278 u_mem/g9789__7410
*2279 u_mem/g9790__6417
*2280 u_mem/g9791__5477
*2281 u_mem/g9792__2398
*2282 u_mem/g9793__5107
*2283 u_mem/g9794__6260
*2284 u_mem/g9795__4319
*2285 u_mem/g9796__8428
*2286 u_mem/g9797__5526
*2287 u_mem/g9798__6783
*2288 u_mem/g9799__3680
*2289 u_mem/g9800__1617
*2290 u_mem/g9801__2802
*2291 u_mem/g9802__1705
*2292 u_mem/g9803__5122
*2293 u_mem/g9804__8246
*2294 u_mem/g9805__7098
*2295 u_mem/g9806__6131
*2296 u_mem/g9807__1881
*2297 u_mem/g9808__5115
*2298 u_mem/g9809__7482
*2299 u_mem/g9810__4733
*2300 u_mem/g9811__6161
*2301 u_mem/g9812__9315
*2302 u_mem/g9813__9945
*2303 u_mem/g9814__2883
*2304 u_mem/g9815__2346
*2305 u_mem/g9816__1666
*2306 u_mem/g9817__7410
*2307 u_mem/g9818__6417
*2308 u_mem/g9819__5477
*2309 u_mem/g9820__2398
*2310 u_mem/g9821__5107
*2311 u_mem/g9822__6260
*2312 u_mem/g9823__4319
*2313 u_mem/g9824__8428
*2314 u_mem/g9825__5526
*2315 u_mem/g9826__6783
*2316 u_mem/g9827__3680
*2317 u_mem/g9828__1617
*2318 u_mem/g9829__2802
*2319 u_mem/g9830__1705
*2320 u_mem/g9831__5122
*2321 u_mem/g9832__8246
*2322 u_mem/g9833__7098
*2323 u_mem/g9834__6131
*2324 u_mem/g9835__1881
*2325 u_mem/g9836__5115
*2326 u_mem/g9837__7482
*2327 u_mem/g9838__4733
*2328 u_mem/g9839__6161
*2329 u_mem/g9840__9315
*2330 u_mem/g9841__9945
*2331 u_mem/g9842__2883
*2332 u_mem/g9843__2346
*2333 u_mem/g9844__1666
*2334 u_mem/g9845__7410
*2335 u_mem/g9846__6417
*2336 u_mem/g9847__5477
*2337 u_mem/g9848__2398
*2338 u_mem/g9849__5107
*2339 u_mem/g9850__6260
*2340 u_mem/g9851__4319
*2341 u_mem/g9852__8428
*2342 u_mem/g9853__5526
*2343 u_mem/g9854__6783
*2344 u_mem/g9855__3680
*2345 u_mem/g9856__1617
*2346 u_mem/g9857__2802
*2347 u_mem/g9858__1705
*2348 u_mem/g9859__5122
*2349 u_mem/g9860__8246
*2350 u_mem/g9861__7098
*2351 u_mem/g9862__6131
*2352 u_mem/g9863__1881
*2353 u_mem/g9864__5115
*2354 u_mem/g9865__7482
*2355 u_mem/g9866__4733
*2356 u_mem/g9867__6161
*2357 u_mem/g9868__9315
*2358 u_mem/g9869__9945
*2359 u_mem/g9870__2883
*2360 u_mem/g9871__2346
*2361 u_mem/g9872__1666
*2362 u_mem/g9873__7410
*2363 u_mem/g9874__6417
*2364 u_mem/g9875__5477
*2365 u_mem/g9876__2398
*2366 u_mem/g9877__5107
*2367 u_mem/g9878__6260
*2368 u_mem/g9879__4319
*2369 u_mem/g9880__8428
*2370 u_mem/g9881__5526
*2371 u_mem/g9882__6783
*2372 u_mem/g9883__3680
*2373 u_mem/g9884__1617
*2374 u_mem/g9885__2802
*2375 u_mem/g9886__1705
*2376 u_mem/g9887__5122
*2377 u_mem/g9888__8246
*2378 u_mem/g9889__7098
*2379 u_mem/g9890__6131
*2380 u_mem/g9891__1881
*2381 u_mem/g9892__5115
*2382 u_mem/g9893__7482
*2383 u_mem/g9894__4733
*2384 u_mem/g9895__6161
*2385 u_mem/g9896__9315
*2386 u_mem/g9897__9945
*2387 u_mem/g9898__2883
*2388 u_mem/g9899__2346
*2389 u_mem/g9900__1666
*2390 u_mem/g9901__7410
*2391 u_mem/g9902__6417
*2392 u_mem/g9903__5477
*2393 u_mem/g9904__2398
*2394 u_mem/g9905__5107
*2395 u_mem/g9906__6260
*2396 u_mem/g9907__4319
*2397 u_mem/g9908__8428
*2398 u_mem/g9909__5526
*2399 u_mem/g9910__6783
*2400 u_mem/g9911__3680
*2401 u_mem/g9912__1617
*2402 u_mem/g9913__2802
*2403 u_mem/g9914__1705
*2404 u_mem/g9915__5122
*2405 u_mem/g9916__8246
*2406 u_mem/g9917__7098
*2407 u_mem/g9918__6131
*2408 u_mem/g9919__1881
*2409 u_mem/g9920__5115
*2410 u_mem/g9921__7482
*2411 u_mem/g9922__4733
*2412 u_mem/g9923__6161
*2413 u_mem/g9924__9315
*2414 u_mem/g9925__9945
*2415 u_mem/g9926__2883
*2416 u_mem/g9927__2346
*2417 u_mem/g9928__1666
*2418 u_mem/g9929__7410
*2419 u_mem/g9930__6417
*2420 u_mem/g9931__5477
*2421 u_mem/g9932__2398
*2422 u_mem/g9933__5107
*2423 u_mem/g9934__6260
*2424 u_mem/g9935__4319
*2425 u_mem/g9936__8428
*2426 u_mem/g9937__5526
*2427 u_mem/g9938__6783
*2428 u_mem/g9939__3680
*2429 u_mem/g9940__1617
*2430 u_mem/g9941__2802
*2431 u_mem/g9942__1705
*2432 u_mem/g9943__5122
*2433 u_mem/g9944__8246
*2434 u_mem/g9945__7098
*2435 u_mem/g9946__6131
*2436 u_mem/g9947__1881
*2437 u_mem/g9948__5115
*2438 u_mem/g9949__7482
*2439 u_mem/g9950__4733
*2440 u_mem/g9951__6161
*2441 u_mem/g9952__9315
*2442 u_mem/g9953__9945
*2443 u_mem/g9954__2883
*2444 u_mem/g9955__2346
*2445 u_mem/g9956__1666
*2446 u_mem/g9957__7410
*2447 u_mem/g9958__6417
*2448 u_mem/g9959__5477
*2449 u_mem/g9960__2398
*2450 u_mem/g9961
*2451 u_mem/g9962
*2452 u_mem/g9963
*2453 u_mem/g9964__5107
*2454 u_mem/g9965__6260
*2455 u_mem/g9966__4319
*2456 u_mem/g9967__8428
*2457 u_mem/g9968__5526
*2458 u_mem/g9969__6783
*2459 u_mem/g9970__3680
*2460 u_mem/g9971__1617
*2461 u_mem/g9972__2802
*2462 u_mem/g9973__1705
*2463 u_mem/g9974__5122
*2464 u_mem/g9975__8246
*2465 u_mem/g9976__7098
*2466 u_mem/g9977__6131
*2467 u_mem/g9978__1881
*2468 u_mem/g9979__5115
*2469 u_mem/g9980__7482
*2470 u_mem/g9981__4733
*2471 u_mem/g9982__6161
*2472 u_mem/g9983__9315
*2473 u_mem/g9984__9945
*2474 u_mem/g9985__2883
*2475 u_mem/g9986
*2476 u_mem/g9987
*2477 u_mem/g9988
*2478 u_mem/g9989__2346
*2479 u_mem/g9990__1666
*2480 u_mem/g9991__7410
*2481 u_mem/g9992__6417
*2482 u_mem/g9993__5477
*2483 u_mem/g9994__2398
*2484 u_mem/g9995
*2485 u_mem/g9996__5107
*2486 u_mem/g9997__6260
*2487 u_mem/g9998__4319
*2488 u_mem/g9999__8428
*2489 u_mem/g10000__5526
*2490 u_mem/g10001__6783
*2491 u_mem/g10002__3680
*2492 u_mem/g10003
*2493 u_mem/g10004
*2494 u_mem/g10005
*2495 u_mem/g10006
*2496 u_mem/g10007
*2497 u_mem/g10008
*2498 u_mem/drc_bufs10014
*2499 u_mem/drc_bufs10015
*2500 u_mem/drc_bufs10021
*2501 u_mem/drc_bufs10022
*2502 u_mem/drc_bufs10028
*2503 u_mem/drc_bufs10029
*2504 u_mem/drc_bufs10035
*2505 u_mem/drc_bufs10036
*2506 u_mem/drc_bufs10042
*2507 u_mem/drc_bufs10043
*2508 u_mem/drc_bufs10049
*2509 u_mem/drc_bufs10050
*2510 u_mem/drc_bufs10056
*2511 u_mem/drc_bufs10057
*2512 u_mem/drc_bufs10063
*2513 u_mem/drc_bufs10064
*2514 u_mem/drc_bufs10070
*2515 u_mem/drc_bufs10071
*2516 u_mem/drc_bufs10077
*2517 u_mem/drc_bufs10078
*2518 u_mem/drc_bufs10084
*2519 u_mem/drc_bufs10085
*2520 u_mem/drc_bufs10091
*2521 u_mem/drc_bufs10092
*2522 u_mem/drc_bufs10098
*2523 u_mem/drc_bufs10099
*2524 u_mem/drc_bufs10105
*2525 u_mem/drc_bufs10106
*2526 u_mem/drc_bufs10112
*2527 u_mem/drc_bufs10113
*2528 u_mem/drc_bufs10119
*2529 u_mem/drc_bufs10120
*2530 u_mem/read_bank_q_reg[0]
*2531 u_mem/read_bank_q_reg[1]
*2532 u_mem/read_bank_q_reg[2]
*2533 u_mem/read_bank_q_reg[3]
*2534 u_mem/g2837__1617
*2535 u_mem/g2838__2802
*2536 u_mem/g2839__1705
*2537 u_mem/g2840__5122
*2538 u_mem/g2841
*2539 u_mem/drc_buf_sp10144
*2540 g7993
*2541 g7992
*2542 g8084__8246
*2543 g8085__7098
*2544 g8086__6131
*2545 g8087__1881
*2546 g8088__5115
*2547 g8090__7482
*2548 g8091__4733
*2549 g8092
*2550 g8093__6161
*2551 g8094__9315
*2552 g8095
*2553 g8096__9945
*2554 g8824__2883
*2555 g8825__2346
*2556 g8826__1666
*2557 g8827__7410
*2558 g8828__6417
*2559 g8829__5477
*2560 g8830__2398
*2561 g8831__5107
*2562 g8832__6260
*2563 g8833__4319
*2564 g8834__8428
*2565 g8835__5526
*2566 g8836__6783
*2567 g8837__3680
*2568 g8838__1617
*2569 g8839__2802
*2570 g8840__1705
*2571 g8841__5122
*2572 g8842__8246
*2573 g8843__7098
*2574 g8844__6131
*2575 g8845__1881
*2576 g8846__5115
*2577 g8847__7482
*2578 g8848__4733
*2579 g8849__6161
*2580 g8850__9315
*2581 g8851__9945
*2582 g8852__2883
*2583 g8853__2346
*2584 g8854__1666
*2585 g8855__7410
*2586 g8856__6417
*2587 g8857__5477
*2588 g8858__2398
*2589 g8859__5107
*2590 g8860__6260
*2591 g8861__4319
*2592 g8862__8428
*2593 g8863__5526
*2594 g8864__6783
*2595 g8865__3680
*2596 g8866__1617
*2597 g8867__2802
*2598 g8868__1705
*2599 g8869__5122
*2600 g8870__8246
*2601 g8871__7098
*2602 g8872__6131
*2603 g8873__1881
*2604 g8874
*2605 g8875
*2606 g8876
*2607 g8877
*2608 g8878
*2609 r_addr_reg_reg[2]
*2610 r_addr_reg_reg[3]
*2611 r_addr_reg_reg[4]
*2612 r_addr_reg_reg[5]
*2613 r_addr_reg_reg[6]
*2614 r_addr_reg_reg[7]
*2615 r_addr_reg_reg[8]
*2616 r_addr_reg_reg[9]
*2617 r_addr_reg_reg[10]
*2618 r_addr_reg_reg[11]
*2619 r_addr_reg_reg[12]
*2620 r_addr_reg_reg[13]
*2621 r_addr_reg_reg[14]
*2622 r_addr_reg_reg[15]
*2623 r_count_reg_reg[0]
*2624 r_count_reg_reg[1]
*2625 r_count_reg_reg[2]
*2626 r_count_reg_reg[3]
*2627 r_count_reg_reg[4]
*2628 r_count_reg_reg[5]
*2629 r_count_reg_reg[6]
*2630 r_count_reg_reg[7]
*2631 r_error_reg_reg
*2632 r_id_reg_reg[0]
*2633 r_id_reg_reg[1]
*2634 r_id_reg_reg[2]
*2635 r_id_reg_reg[3]
*2636 r_id_reg_reg[4]
*2637 r_incr_reg_reg
*2638 r_len_reg_reg[0]
*2639 r_len_reg_reg[1]
*2640 r_len_reg_reg[2]
*2641 r_len_reg_reg[3]
*2642 r_len_reg_reg[4]
*2643 r_len_reg_reg[5]
*2644 r_len_reg_reg[6]
*2645 r_len_reg_reg[7]
*2646 s_axi_arready_reg
*2647 s_axi_bid_reg[0]
*2648 s_axi_bid_reg[1]
*2649 s_axi_bid_reg[2]
*2650 s_axi_bid_reg[3]
*2651 s_axi_bid_reg[4]
*2652 s_axi_bresp_reg[1]
*2653 s_axi_bvalid_reg
*2654 s_axi_rdata_reg[0]
*2655 s_axi_rdata_reg[1]
*2656 s_axi_rdata_reg[2]
*2657 s_axi_rdata_reg[3]
*2658 s_axi_rdata_reg[4]
*2659 s_axi_rdata_reg[5]
*2660 s_axi_rdata_reg[6]
*2661 s_axi_rdata_reg[7]
*2662 s_axi_rdata_reg[8]
*2663 s_axi_rdata_reg[9]
*2664 s_axi_rdata_reg[10]
*2665 s_axi_rdata_reg[11]
*2666 s_axi_rdata_reg[12]
*2667 s_axi_rdata_reg[13]
*2668 s_axi_rdata_reg[14]
*2669 s_axi_rdata_reg[15]
*2670 s_axi_rdata_reg[16]
*2671 s_axi_rdata_reg[17]
*2672 s_axi_rdata_reg[18]
*2673 s_axi_rdata_reg[19]
*2674 s_axi_rdata_reg[20]
*2675 s_axi_rdata_reg[21]
*2676 s_axi_rdata_reg[22]
*2677 s_axi_rdata_reg[23]
*2678 s_axi_rdata_reg[24]
*2679 s_axi_rdata_reg[25]
*2680 s_axi_rdata_reg[26]
*2681 s_axi_rdata_reg[27]
*2682 s_axi_rdata_reg[28]
*2683 s_axi_rdata_reg[29]
*2684 s_axi_rdata_reg[30]
*2685 s_axi_rdata_reg[31]
*2686 s_axi_rlast_reg
*2687 s_axi_rresp_reg[1]
*2688 s_axi_rvalid_reg
*2689 s_axi_wready_reg
*2690 state_reg[0]
*2691 state_reg[1]
*2692 state_reg[2]
*2693 state_reg[3]
*2694 w_addr_reg_reg[2]
*2695 w_addr_reg_reg[3]
*2696 w_addr_reg_reg[4]
*2697 w_addr_reg_reg[5]
*2698 w_addr_reg_reg[6]
*2699 w_addr_reg_reg[7]
*2700 w_addr_reg_reg[8]
*2701 w_addr_reg_reg[9]
*2702 w_addr_reg_reg[10]
*2703 w_addr_reg_reg[11]
*2704 w_addr_reg_reg[12]
*2705 w_addr_reg_reg[13]
*2706 w_addr_reg_reg[14]
*2707 w_addr_reg_reg[15]
*2708 w_count_reg_reg[0]
*2709 w_count_reg_reg[1]
*2710 w_count_reg_reg[2]
*2711 w_count_reg_reg[3]
*2712 w_count_reg_reg[4]
*2713 w_count_reg_reg[5]
*2714 w_count_reg_reg[6]
*2715 w_count_reg_reg[7]
*2716 w_drop_reg_reg
*2717 w_error_reg_reg
*2718 w_finish_hold_reg
*2719 w_incr_reg_reg
*2720 w_len_reg_reg[0]
*2721 w_len_reg_reg[1]
*2722 w_len_reg_reg[2]
*2723 w_len_reg_reg[3]
*2724 w_len_reg_reg[4]
*2725 w_len_reg_reg[5]
*2726 w_len_reg_reg[6]
*2727 w_len_reg_reg[7]
*2728 wdata_hold_reg[0]
*2729 wdata_hold_reg[1]
*2730 wdata_hold_reg[2]
*2731 wdata_hold_reg[3]
*2732 wdata_hold_reg[4]
*2733 wdata_hold_reg[5]
*2734 wdata_hold_reg[6]
*2735 wdata_hold_reg[7]
*2736 wdata_hold_reg[8]
*2737 wdata_hold_reg[9]
*2738 wdata_hold_reg[10]
*2739 wdata_hold_reg[11]
*2740 wdata_hold_reg[12]
*2741 wdata_hold_reg[13]
*2742 wdata_hold_reg[14]
*2743 wdata_hold_reg[15]
*2744 wdata_hold_reg[16]
*2745 wdata_hold_reg[17]
*2746 wdata_hold_reg[18]
*2747 wdata_hold_reg[19]
*2748 wdata_hold_reg[20]
*2749 wdata_hold_reg[21]
*2750 wdata_hold_reg[22]
*2751 wdata_hold_reg[23]
*2752 wdata_hold_reg[24]
*2753 wdata_hold_reg[25]
*2754 wdata_hold_reg[26]
*2755 wdata_hold_reg[27]
*2756 wdata_hold_reg[28]
*2757 wdata_hold_reg[29]
*2758 wdata_hold_reg[30]
*2759 wdata_hold_reg[31]
*2760 wstrb_hold_reg[0]
*2761 wstrb_hold_reg[1]
*2762 wstrb_hold_reg[2]
*2763 wstrb_hold_reg[3]
*2764 g11070__5115
*2765 g11071__7482
*2766 g11074__4733
*2767 g11075__6161
*2768 g11077__9315
*2769 g11081__9945
*2770 g11082__2883
*2771 g11083__2346
*2772 g11084__1666
*2773 g11090__7410
*2774 g11091__6417
*2775 g11092__5477
*2776 g11093__2398
*2777 g11094__5107
*2778 g11095__6260
*2779 g11106__4319
*2780 g11107__8428
*2781 g11108__5526
*2782 g11109__6783
*2783 g11110__3680
*2784 g11111__1617
*2785 g11112__2802
*2786 g11113__1705
*2787 g11114__5122
*2788 g11116__8246
*2789 g11117__7098
*2790 g11118__6131
*2791 g11119__1881
*2792 g11120__5115
*2793 g11132__7482
*2794 g11133__4733
*2795 g11134__6161
*2796 g11135__9315
*2797 g11136__9945
*2798 g11137__2883
*2799 g11138__2346
*2800 g11139__1666
*2801 g11140__7410
*2802 g11141__6417
*2803 g11142__5477
*2804 g11143__2398
*2805 g11144__5107
*2806 g11145__6260
*2807 g11146__4319
*2808 g11147__8428
*2809 g11148__5526
*2810 g11149__6783
*2811 g11150__3680
*2812 g11151__1617
*2813 g11152__2802
*2814 g11153__1705
*2815 g11154__5122
*2816 g11155__8246
*2817 g11159__7098
*2818 g11160__6131
*2819 g11161__1881
*2820 g11162__5115
*2821 g11163__7482
*2822 g11164__4733
*2823 g11165__6161
*2824 g11166__9315
*2825 g11169__9945
*2826 g11170__2883
*2827 g11171__2346
*2828 g11172__1666
*2829 g11173__7410
*2830 g11174__6417
*2831 g11175__5477
*2832 g11176__2398
*2833 g11177__5107
*2834 g11178__6260
*2835 g11181
*2836 g11182__4319
*2837 g11183__8428
*2838 g11184__5526
*2839 g11185__6783
*2840 g11186__3680
*2841 g11187__1617
*2842 g11188__2802
*2843 g11189__1705
*2844 g11190__5122
*2845 g11191__8246
*2846 g11192__7098
*2847 g11193__6131
*2848 g11194__1881
*2849 g11229__5115
*2850 g11230__7482
*2851 g11231__4733
*2852 g11232__6161
*2853 g11233__9315
*2854 g11234__9945
*2855 g11235__2883
*2856 g11236__2346
*2857 g11237__1666
*2858 g11238__7410
*2859 g11239__6417
*2860 g11240__5477
*2861 g11241__2398
*2862 g11242__5107
*2863 g11245__6260
*2864 g11250__4319
*2865 g11251__8428
*2866 g11252__5526
*2867 g11256__6783
*2868 g11257__3680
*2869 g11258__1617
*2870 g11259__2802
*2871 g11260__1705
*2872 g11261__5122
*2873 g11262__8246
*2874 g11263__7098
*2875 g11264__6131
*2876 g11265__1881
*2877 g11266__5115
*2878 g11267__7482
*2879 g11268__4733
*2880 g11269__6161
*2881 g11270__9315
*2882 g11271__9945
*2883 g11272__2883
*2884 g11273__2346
*2885 g11274__1666
*2886 g11275__7410
*2887 g11277__6417
*2888 g11278__5477
*2889 g11286
*2890 g11287__2398
*2891 g11288__5107
*2892 g11289__6260
*2893 g11290__4319
*2894 g11291__8428
*2895 g11292__5526
*2896 g11293__6783
*2897 g11294__3680
*2898 g11295__1617
*2899 g11296__2802
*2900 g11297__1705
*2901 g11298__5122
*2902 g11299__8246
*2903 g11300__7098
*2904 g11301__6131
*2905 g11302__1881
*2906 g11303__5115
*2907 g11304__7482
*2908 g11305__4733
*2909 g11306__6161
*2910 g11307__9315
*2911 g11308__9945
*2912 g11309__2883
*2913 g11310__2346
*2914 g11311__1666
*2915 g11312__7410
*2916 g11313__6417
*2917 g11314__5477
*2918 g11315__2398
*2919 g11316__5107
*2920 g11325__6260
*2921 g11326__4319
*2922 g11336__8428
*2923 g11337__5526
*2924 g11338__6783
*2925 g11339__3680
*2926 g11340__1617
*2927 g11341__2802
*2928 g11342__1705
*2929 g11343__5122
*2930 g11344__8246
*2931 g11345__7098
*2932 g11346__6131
*2933 g11348__1881
*2934 g11349__5115
*2935 g11350__7482
*2936 g11352__4733
*2937 g11353__6161
*2938 g11354__9315
*2939 g11355__9945
*2940 g11356__2883
*2941 g11357__2346
*2942 g11358__1666
*2943 g11359__7410
*2944 g11360__6417
*2945 g11361__5477
*2946 g11362__2398
*2947 g11363__5107
*2948 g11364__6260
*2949 g11365__4319
*2950 g11366__8428
*2951 g11367__5526
*2952 g11368__6783
*2953 g11369__3680
*2954 g11370__1617
*2955 g11371__2802
*2956 g11372__1705
*2957 g11373__5122
*2958 g11374__8246
*2959 g11375__7098
*2960 g11376__6131
*2961 g11377__1881
*2962 g11378__5115
*2963 g11379__7482
*2964 g11380__4733
*2965 g11381__6161
*2966 g11382__9315
*2967 g11383__9945
*2968 g11384__2883
*2969 g11385__2346
*2970 g11386__1666
*2971 g11387__7410
*2972 g11388__6417
*2973 g11389__5477
*2974 g11390__2398
*2975 g11391__5107
*2976 g11392__6260
*2977 g11393__4319
*2978 g11394__8428
*2979 g11395__5526
*2980 g11396__6783
*2981 g11397__3680
*2982 g11398__1617
*2983 g11399__2802
*2984 g11400__1705
*2985 g11401__5122
*2986 g11402__8246
*2987 g11403__7098
*2988 g11404__6131
*2989 g11405__1881
*2990 g11406__5115
*2991 g11407__7482
*2992 g11408__4733
*2993 g11409__6161
*2994 g11410__9315
*2995 g11411__9945
*2996 g11412__2883
*2997 g11413__2346
*2998 g11414__1666
*2999 g11415__7410
*3000 g11416__6417
*3001 g11462
*3002 g11467__5477
*3003 g11468__2398
*3004 g11469__5107
*3005 g11470__6260
*3006 g11471__4319
*3007 g11472__8428
*3008 g11473__5526
*3009 g11474__6783
*3010 g11475__3680
*3011 g11476__1617
*3012 g11477__2802
*3013 g11486__1705
*3014 g11490__5122
*3015 g11492__8246
*3016 g11493__7098
*3017 g11498__6131
*3018 g11499__1881
*3019 g11500__5115
*3020 g11501__7482
*3021 g11502__4733
*3022 g11503__6161
*3023 g11504__9315
*3024 g11505__9945
*3025 g11506__2883
*3026 g11507__2346
*3027 g11508__1666
*3028 g11509__7410
*3029 g11510__6417
*3030 g11511__5477
*3031 g11512__2398
*3032 g11513__5107
*3033 g11514__6260
*3034 g11515__4319
*3035 g11516__8428
*3036 g11517__5526
*3037 g11518__6783
*3038 g11519__3680
*3039 g11520__1617
*3040 g11521__2802
*3041 g11522__1705
*3042 g11523__5122
*3043 g11524__8246
*3044 g11525__7098
*3045 g11526__6131
*3046 g11527__1881
*3047 g11528__5115
*3048 g11529__7482
*3049 g11530__4733
*3050 g11531__6161
*3051 g11532__9315
*3052 g11533__9945
*3053 g11534__2883
*3054 g11535__2346
*3055 g11536__1666
*3056 g11537__7410
*3057 g11538__6417
*3058 g11539__5477
*3059 g11540__2398
*3060 g11541__5107
*3061 g11542__6260
*3062 g11543__4319
*3063 g11544__8428
*3064 g11545__5526
*3065 g11546__6783
*3066 g11547__3680
*3067 g11548__1617
*3068 g11549__2802
*3069 g11550__1705
*3070 g11551__5122
*3071 g11552__8246
*3072 g11553__7098
*3073 g11554__6131
*3074 g11555__1881
*3075 g11556__5115
*3076 g11557__7482
*3077 g11558__4733
*3078 g11559__6161
*3079 g11560__9315
*3080 g11561__9945
*3081 g11562__2883
*3082 g11563__2346
*3083 g11564__1666
*3084 g11565__7410
*3085 g11566__6417
*3086 g11567__5477
*3087 g11568__2398
*3088 g11569__5107
*3089 g11570__6260
*3090 g11571__4319
*3091 g11572__8428
*3092 g11573__5526
*3093 g11574__6783
*3094 g11575__3680
*3095 g11576__1617
*3096 g11577__2802
*3097 g11578__1705
*3098 g11579__5122
*3099 g11580__8246
*3100 g11581__7098
*3101 g11582__6131
*3102 g11601__1881
*3103 g11602__5115
*3104 g11603__7482
*3105 g11604__4733
*3106 g11605__6161
*3107 g11606__9315
*3108 g11607__9945
*3109 g11608__2883
*3110 g11609__2346
*3111 g11610__1666
*3112 g11611__7410
*3113 g11612__6417
*3114 g11616__5477
*3115 g11617__2398
*3116 g11618__5107
*3117 g11619__6260
*3118 g11620__4319
*3119 g11621__8428
*3120 g11622__5526
*3121 g11623__6783
*3122 g11624__3680
*3123 g11625__1617
*3124 g11626__2802
*3125 g11627__1705
*3126 g11628__5122
*3127 g11629__8246
*3128 g11630__7098
*3129 g11631__6131
*3130 g11632__1881
*3131 g11633__5115
*3132 g11634__7482
*3133 g11635__4733
*3134 g11636__6161
*3135 g11637__9315
*3136 g11638__9945
*3137 g11639__2883
*3138 g11640__2346
*3139 g11641__1666
*3140 g11642__7410
*3141 g11643__6417
*3142 g11644__5477
*3143 g11645__2398
*3144 g11646__5107
*3145 g11647__6260
*3146 g11648__4319
*3147 g11649__8428
*3148 g11650
*3149 g11651
*3150 g11652__5526
*3151 g11653__6783
*3152 g11654__3680
*3153 g11655__1617
*3154 g11656__2802
*3155 g11657__1705
*3156 g11658__5122
*3157 g11659__8246
*3158 g11660__7098
*3159 g11661__6131
*3160 g11662__1881
*3161 g11663__5115
*3162 g11664__7482
*3163 g11665__4733
*3164 g11666__6161
*3165 g11667__9315
*3166 g11668__9945
*3167 g11669__2883
*3168 g11670__2346
*3169 g11671__1666
*3170 g11672__7410
*3171 g11673__6417
*3172 g11674__5477
*3173 g11675__2398
*3174 g11676__5107
*3175 g11677__6260
*3176 g11678__4319
*3177 g11679__8428
*3178 g11680__5526
*3179 g11681__6783
*3180 g11682__3680
*3181 g11683__1617
*3182 g11684__2802
*3183 g11685
*3184 g11686__1705
*3185 g11687__5122
*3186 g11688__8246
*3187 g11689__7098
*3188 g11690__6131
*3189 g11691__1881
*3190 g11692__5115
*3191 g11693__7482
*3192 g11694__4733
*3193 g11695__6161
*3194 g11696__9315
*3195 g11697__9945
*3196 g11698__2883
*3197 g11699__2346
*3198 g11700__1666
*3199 g11701__7410
*3200 g11702__6417
*3201 g11703__5477
*3202 g11707
*3203 g11708
*3204 g11714
*3205 g11721
*3206 g11722__2398
*3207 g11724__5107
*3208 g11725__6260
*3209 g11726__4319
*3210 g11727__8428
*3211 g11728__5526
*3212 g11729__6783
*3213 g11730__3680
*3214 g11731__1617
*3215 g11732__2802
*3216 g11733__1705
*3217 g11734__5122
*3218 g11735__8246
*3219 g11736__7098
*3220 g11738__1881
*3221 g11739__5115
*3222 g11740__7482
*3223 g11741
*3224 g11742
*3225 g11748
*3226 g11751
*3227 g11757__4733
*3228 g11758__6161
*3229 g11759__9315
*3230 g11760__9945
*3231 g11761__2883
*3232 g11763__1666
*3233 g11766__5477
*3234 g11767__2398
*3235 g11768__5107
*3236 g11769__6260
*3237 g11770__4319
*3238 g11771__8428
*3239 g11772__5526
*3240 g11774__3680
*3241 g11775__1617
*3242 g11776__2802
*3243 g11777__1705
*3244 g11778__5122
*3245 g11779__8246
*3246 g11780__7098
*3247 g11781__6131
*3248 g11782__1881
*3249 g11783__5115
*3250 g11785
*3251 g11786
*3252 g11787__7482
*3253 g11788__4733
*3254 g11789__6161
*3255 g11790__9315
*3256 g11791__9945
*3257 g11793__2346
*3258 g11794__1666
*3259 g11795__7410
*3260 g11796
*3261 g11797
*3262 g11799
*3263 g11800
*3264 g11801__6417
*3265 g11802__5477
*3266 g11803__2398
*3267 g11804__5107
*3268 g11805__6260
*3269 g11806__4319
*3270 g11808__5526
*3271 g11809__6783
*3272 g11828
*3273 g11891
*3274 g11896
*3275 g11905
*3276 g11909
*3277 g11911
*3278 g11920
*3279 g11923
*3280 g11927
*3281 g11929
*3282 g11932
*3283 g11936
*3284 g11938
*3285 g11939
*3286 g11952
*3287 g11955
*3288 g11957
*3289 g11963
*3290 g11974
*3291 g11975
*3292 g11978
*3293 g11980
*3294 g11986
*3295 g11991
*3296 g11995
*3297 g11999
*3298 g12000
*3299 g12003
*3300 g12007
*3301 g12008
*3302 g12013
*3303 g12034
*3304 g12037
*3305 g12038
*3306 g12039
*3307 g12040
*3308 g12047
*3309 g12048
*3310 drc_bufs12058
*3311 drc_bufs12059
*3312 drc_bufs12060
*3313 drc_bufs12061
*3314 drc_bufs12071
*3315 drc_bufs12072
*3316 drc_bufs12073
*3317 drc_bufs12074
*3318 drc_bufs12087
*3319 drc_bufs12093
*3320 drc_bufs12094
*3321 drc_bufs12100
*3322 drc_bufs12101
*3323 drc_bufs12106
*3324 drc_bufs12107
*3325 drc_bufs12108
*3326 drc_bufs12114
*3327 drc_bufs12115
*3328 drc_bufs12121
*3329 drc_bufs12122
*3330 drc_bufs12127
*3331 drc_bufs12128
*3332 drc_bufs12129
*3333 drc_bufs12135
*3334 drc_bufs12136
*3335 g2__3680
*3336 g12137__1617
*3337 g12138__2802
*3338 g12139__1705
*3339 g12140__5122
*3340 g12141__8246
*3341 g12142__7098
*3342 g12143__6131
*3343 g12144__1881
*3344 g12145__5115
*3345 g12146__7482
*3346 g12147__4733
*3347 g2
*3348 g12149
*3349 g3
*3350 g12150
*3351 g12151
*3352 g12152

*PORTS

*1 I
*2 I
*3 I
*4 I
*5 I
*6 I
*7 I
*8 I
*9 I
*10 I
*11 I
*12 I
*13 I
*14 I
*15 I
*16 I
*17 I
*18 I
*19 I
*20 I
*21 I
*22 I
*23 I
*24 I
*25 I
*26 I
*27 I
*28 I
*29 I
*30 I
*31 I
*32 I
*33 I
*34 I
*35 I
*36 I
*37 I
*38 I
*39 I
*40 I
*41 I
*42 I
*43 I
*44 I
*45 I
*46 I
*47 I
*48 I
*49 I
*50 I
*51 I
*52 I
*53 I
*54 I
*55 I
*56 I
*57 I
*58 I
*59 I
*60 I
*61 I
*62 I
*63 I
*64 I
*65 I
*66 I
*67 I
*68 I
*69 I
*70 I
*71 I
*72 I
*73 I
*74 I
*75 I
*76 I
*77 I
*78 I
*79 I
*80 I
*81 I
*82 I
*83 I
*84 I
*85 I
*86 I
*87 I
*88 I
*89 I
*90 I
*91 I
*92 I
*93 I
*94 I
*95 I
*96 I
*97 I
*98 I
*99 I
*100 I
*101 I
*102 I
*103 I
*104 I
*105 I
*106 I
*107 I
*108 I
*109 I
*110 I
*111 I
*112 I
*113 I
*114 I
*115 I
*116 I
*117 I
*118 I
*119 I
*120 I
*121 I
*122 I
*123 I
*124 I
*125 I
*126 I
*127 I
*128 I
*129 I
*130 I
*131 I
*132 I
*133 I
*134 I
*135 I
*136 I
*137 I
*138 I
*139 I
*140 I
*141 I
*142 I
*143 I
*144 I
*145 I
*146 I
*147 I
*148 I
*149 I
*150 I
*151 I
*152 I
*153 I
*154 I
*155 I
*156 I
*157 I
*158 I
*159 I
*160 I
*161 I
*162 I
*163 I
*164 I
*165 I
*166 I
*167 I
*168 I
*169 I
*170 I
*171 I
*172 I
*173 I
*174 I
*175 I
*176 I
*177 O
*178 O
*179 O
*180 O
*181 O
*182 O
*183 O
*184 O
*185 O
*186 O
*187 O
*188 O
*189 O
*190 O
*191 O
*192 O
*193 O
*194 O
*195 O
*196 O
*197 O
*198 O
*199 O
*200 O
*201 O
*202 O
*203 O
*204 O
*205 O
*206 O
*207 O
*208 O
*209 O
*210 O
*211 O
*212 O
*213 O
*214 O
*215 O
*216 O
*217 O
*218 O
*219 O
*220 O
*221 O
*222 O
*223 O
*224 O
*225 O
*226 O
*227 O
*228 O

*D_NET *229 0.000000

*CONN
*I *2098:ADDRESS[0] I *L 0.0003 *D srambank_256x4x32_6t122
*I *2112:ADDRESS[0] I *L 0.0003 *D srambank_256x4x32_6t122
*I *2106:ADDRESS[0] I *L 0.0003 *D srambank_256x4x32_6t122
*I *2107:ADDRESS[0] I *L 0.0003 *D srambank_256x4x32_6t122
*I *2103:ADDRESS[0] I *L 0.0003 *D srambank_256x4x32_6t122
*I *2110:ADDRESS[0] I *L 0.0003 *D srambank_256x4x32_6t122
*I *2104:ADDRESS[0] I *L 0.0003 *D srambank_256x4x32_6t122
*I *2101:ADDRESS[0] I *L 0.0003 *D srambank_256x4x32_6t122
*I *2097:ADDRESS[0] I *L 0.0003 *D srambank_256x4x32_6t122
*I *2111:ADDRESS[0] I *L 0.0003 *D srambank_256x4x32_6t122
*I *2105:ADDRESS[0] I *L 0.0003 *D srambank_256x4x32_6t122
*I *2100:ADDRESS[0] I *L 0.0003 *D srambank_256x4x32_6t122
*I *2099:ADDRESS[0] I *L 0.0003 *D srambank_256x4x32_6t122
*I *2109:ADDRESS[0] I *L 0.0003 *D srambank_256x4x32_6t122
*I *2108:ADDRESS[0] I *L 0.0003 *D srambank_256x4x32_6t122
*I *2102:ADDRESS[0] I *L 0.0003 *D srambank_256x4x32_6t122
*I *2592:Y O *L 0.0000 *D AO22x1_ASAP7_75t_L

*CAP
1 *2098:ADDRESS[0] 0
2 *2112:ADDRESS[0] 0
3 *2106:ADDRESS[0] 0
4 *2107:ADDRESS[0] 0
5 *2103:ADDRESS[0] 0
6 *2110:ADDRESS[0] 0
7 *2104:ADDRESS[0] 0
8 *2101:ADDRESS[0] 0
9 *2097:ADDRESS[0] 0
10 *2111:ADDRESS[0] 0
11 *2105:ADDRESS[0] 0
12 *2100:ADDRESS[0] 0
13 *2099:ADDRESS[0] 0
14 *2109:ADDRESS[0] 0
15 *2108:ADDRESS[0] 0
16 *2102:ADDRESS[0] 0

*RES
1 *2592:Y *2098:ADDRESS[0] 0
2 *2592:Y *2112:ADDRESS[0] 0
3 *2592:Y *2106:ADDRESS[0] 0
4 *2592:Y *2107:ADDRESS[0] 0
5 *2592:Y *2103:ADDRESS[0] 0
6 *2592:Y *2110:ADDRESS[0] 0
7 *2592:Y *2104:ADDRESS[0] 0
8 *2592:Y *2101:ADDRESS[0] 0
9 *2592:Y *2097:ADDRESS[0] 0
10 *2592:Y *2111:ADDRESS[0] 0
11 *2592:Y *2105:ADDRESS[0] 0
12 *2592:Y *2100:ADDRESS[0] 0
13 *2592:Y *2099:ADDRESS[0] 0
14 *2592:Y *2109:ADDRESS[0] 0
15 *2592:Y *2108:ADDRESS[0] 0
16 *2592:Y *2102:ADDRESS[0] 0
*END

*D_NET *230 0.000000

*CONN
*I *2098:ADDRESS[1] I *L 0.0003 *D srambank_256x4x32_6t122
*I *2112:ADDRESS[1] I *L 0.0003 *D srambank_256x4x32_6t122
*I *2106:ADDRESS[1] I *L 0.0003 *D srambank_256x4x32_6t122
*I *2107:ADDRESS[1] I *L 0.0003 *D srambank_256x4x32_6t122
*I *2103:ADDRESS[1] I *L 0.0003 *D srambank_256x4x32_6t122
*I *2110:ADDRESS[1] I *L 0.0003 *D srambank_256x4x32_6t122
*I *2104:ADDRESS[1] I *L 0.0003 *D srambank_256x4x32_6t122
*I *2101:ADDRESS[1] I *L 0.0003 *D srambank_256x4x32_6t122
*I *2097:ADDRESS[1] I *L 0.0003 *D srambank_256x4x32_6t122
*I *2111:ADDRESS[1] I *L 0.0003 *D srambank_256x4x32_6t122
*I *2105:ADDRESS[1] I *L 0.0003 *D srambank_256x4x32_6t122
*I *2100:ADDRESS[1] I *L 0.0003 *D srambank_256x4x32_6t122
*I *2099:ADDRESS[1] I *L 0.0003 *D srambank_256x4x32_6t122
*I *2109:ADDRESS[1] I *L 0.0003 *D srambank_256x4x32_6t122
*I *2108:ADDRESS[1] I *L 0.0003 *D srambank_256x4x32_6t122
*I *2102:ADDRESS[1] I *L 0.0003 *D srambank_256x4x32_6t122
*I *2593:Y O *L 0.0000 *D AO22x1_ASAP7_75t_L

*CAP
1 *2098:ADDRESS[1] 0
2 *2112:ADDRESS[1] 0
3 *2106:ADDRESS[1] 0
4 *2107:ADDRESS[1] 0
5 *2103:ADDRESS[1] 0
6 *2110:ADDRESS[1] 0
7 *2104:ADDRESS[1] 0
8 *2101:ADDRESS[1] 0
9 *2097:ADDRESS[1] 0
10 *2111:ADDRESS[1] 0
11 *2105:ADDRESS[1] 0
12 *2100:ADDRESS[1] 0
13 *2099:ADDRESS[1] 0
14 *2109:ADDRESS[1] 0
15 *2108:ADDRESS[1] 0
16 *2102:ADDRESS[1] 0

*RES
1 *2593:Y *2098:ADDRESS[1] 0
2 *2593:Y *2112:ADDRESS[1] 0
3 *2593:Y *2106:ADDRESS[1] 0
4 *2593:Y *2107:ADDRESS[1] 0
5 *2593:Y *2103:ADDRESS[1] 0
6 *2593:Y *2110:ADDRESS[1] 0
7 *2593:Y *2104:ADDRESS[1] 0
8 *2593:Y *2101:ADDRESS[1] 0
9 *2593:Y *2097:ADDRESS[1] 0
10 *2593:Y *2111:ADDRESS[1] 0
11 *2593:Y *2105:ADDRESS[1] 0
12 *2593:Y *2100:ADDRESS[1] 0
13 *2593:Y *2099:ADDRESS[1] 0
14 *2593:Y *2109:ADDRESS[1] 0
15 *2593:Y *2108:ADDRESS[1] 0
16 *2593:Y *2102:ADDRESS[1] 0
*END

*D_NET *231 0.000000

*CONN
*I *2098:ADDRESS[2] I *L 0.0003 *D srambank_256x4x32_6t122
*I *2112:ADDRESS[2] I *L 0.0003 *D srambank_256x4x32_6t122
*I *2106:ADDRESS[2] I *L 0.0003 *D srambank_256x4x32_6t122
*I *2107:ADDRESS[2] I *L 0.0003 *D srambank_256x4x32_6t122
*I *2103:ADDRESS[2] I *L 0.0003 *D srambank_256x4x32_6t122
*I *2110:ADDRESS[2] I *L 0.0003 *D srambank_256x4x32_6t122
*I *2104:ADDRESS[2] I *L 0.0003 *D srambank_256x4x32_6t122
*I *2101:ADDRESS[2] I *L 0.0003 *D srambank_256x4x32_6t122
*I *2097:ADDRESS[2] I *L 0.0003 *D srambank_256x4x32_6t122
*I *2111:ADDRESS[2] I *L 0.0003 *D srambank_256x4x32_6t122
*I *2105:ADDRESS[2] I *L 0.0003 *D srambank_256x4x32_6t122
*I *2100:ADDRESS[2] I *L 0.0003 *D srambank_256x4x32_6t122
*I *2099:ADDRESS[2] I *L 0.0003 *D srambank_256x4x32_6t122
*I *2109:ADDRESS[2] I *L 0.0003 *D srambank_256x4x32_6t122
*I *2108:ADDRESS[2] I *L 0.0003 *D srambank_256x4x32_6t122
*I *2102:ADDRESS[2] I *L 0.0003 *D srambank_256x4x32_6t122
*I *2589:Y O *L 0.0000 *D AO22x1_ASAP7_75t_L

*CAP
1 *2098:ADDRESS[2] 0
2 *2112:ADDRESS[2] 0
3 *2106:ADDRESS[2] 0
4 *2107:ADDRESS[2] 0
5 *2103:ADDRESS[2] 0
6 *2110:ADDRESS[2] 0
7 *2104:ADDRESS[2] 0
8 *2101:ADDRESS[2] 0
9 *2097:ADDRESS[2] 0
10 *2111:ADDRESS[2] 0
11 *2105:ADDRESS[2] 0
12 *2100:ADDRESS[2] 0
13 *2099:ADDRESS[2] 0
14 *2109:ADDRESS[2] 0
15 *2108:ADDRESS[2] 0
16 *2102:ADDRESS[2] 0

*RES
1 *2589:Y *2098:ADDRESS[2] 0
2 *2589:Y *2112:ADDRESS[2] 0
3 *2589:Y *2106:ADDRESS[2] 0
4 *2589:Y *2107:ADDRESS[2] 0
5 *2589:Y *2103:ADDRESS[2] 0
6 *2589:Y *2110:ADDRESS[2] 0
7 *2589:Y *2104:ADDRESS[2] 0
8 *2589:Y *2101:ADDRESS[2] 0
9 *2589:Y *2097:ADDRESS[2] 0
10 *2589:Y *2111:ADDRESS[2] 0
11 *2589:Y *2105:ADDRESS[2] 0
12 *2589:Y *2100:ADDRESS[2] 0
13 *2589:Y *2099:ADDRESS[2] 0
14 *2589:Y *2109:ADDRESS[2] 0
15 *2589:Y *2108:ADDRESS[2] 0
16 *2589:Y *2102:ADDRESS[2] 0
*END

*D_NET *232 0.000000

*CONN
*I *2098:ADDRESS[3] I *L 0.0003 *D srambank_256x4x32_6t122
*I *2112:ADDRESS[3] I *L 0.0003 *D srambank_256x4x32_6t122
*I *2106:ADDRESS[3] I *L 0.0003 *D srambank_256x4x32_6t122
*I *2107:ADDRESS[3] I *L 0.0003 *D srambank_256x4x32_6t122
*I *2103:ADDRESS[3] I *L 0.0003 *D srambank_256x4x32_6t122
*I *2110:ADDRESS[3] I *L 0.0003 *D srambank_256x4x32_6t122
*I *2104:ADDRESS[3] I *L 0.0003 *D srambank_256x4x32_6t122
*I *2101:ADDRESS[3] I *L 0.0003 *D srambank_256x4x32_6t122
*I *2097:ADDRESS[3] I *L 0.0003 *D srambank_256x4x32_6t122
*I *2111:ADDRESS[3] I *L 0.0003 *D srambank_256x4x32_6t122
*I *2105:ADDRESS[3] I *L 0.0003 *D srambank_256x4x32_6t122
*I *2100:ADDRESS[3] I *L 0.0003 *D srambank_256x4x32_6t122
*I *2099:ADDRESS[3] I *L 0.0003 *D srambank_256x4x32_6t122
*I *2109:ADDRESS[3] I *L 0.0003 *D srambank_256x4x32_6t122
*I *2108:ADDRESS[3] I *L 0.0003 *D srambank_256x4x32_6t122
*I *2102:ADDRESS[3] I *L 0.0003 *D srambank_256x4x32_6t122
*I *2587:Y O *L 0.0000 *D AO22x1_ASAP7_75t_L

*CAP
1 *2098:ADDRESS[3] 0
2 *2112:ADDRESS[3] 0
3 *2106:ADDRESS[3] 0
4 *2107:ADDRESS[3] 0
5 *2103:ADDRESS[3] 0
6 *2110:ADDRESS[3] 0
7 *2104:ADDRESS[3] 0
8 *2101:ADDRESS[3] 0
9 *2097:ADDRESS[3] 0
10 *2111:ADDRESS[3] 0
11 *2105:ADDRESS[3] 0
12 *2100:ADDRESS[3] 0
13 *2099:ADDRESS[3] 0
14 *2109:ADDRESS[3] 0
15 *2108:ADDRESS[3] 0
16 *2102:ADDRESS[3] 0

*RES
1 *2587:Y *2098:ADDRESS[3] 0
2 *2587:Y *2112:ADDRESS[3] 0
3 *2587:Y *2106:ADDRESS[3] 0
4 *2587:Y *2107:ADDRESS[3] 0
5 *2587:Y *2103:ADDRESS[3] 0
6 *2587:Y *2110:ADDRESS[3] 0
7 *2587:Y *2104:ADDRESS[3] 0
8 *2587:Y *2101:ADDRESS[3] 0
9 *2587:Y *2097:ADDRESS[3] 0
10 *2587:Y *2111:ADDRESS[3] 0
11 *2587:Y *2105:ADDRESS[3] 0
12 *2587:Y *2100:ADDRESS[3] 0
13 *2587:Y *2099:ADDRESS[3] 0
14 *2587:Y *2109:ADDRESS[3] 0
15 *2587:Y *2108:ADDRESS[3] 0
16 *2587:Y *2102:ADDRESS[3] 0
*END

*D_NET *233 0.000000

*CONN
*I *2098:ADDRESS[4] I *L 0.0003 *D srambank_256x4x32_6t122
*I *2112:ADDRESS[4] I *L 0.0003 *D srambank_256x4x32_6t122
*I *2106:ADDRESS[4] I *L 0.0003 *D srambank_256x4x32_6t122
*I *2107:ADDRESS[4] I *L 0.0003 *D srambank_256x4x32_6t122
*I *2103:ADDRESS[4] I *L 0.0003 *D srambank_256x4x32_6t122
*I *2110:ADDRESS[4] I *L 0.0003 *D srambank_256x4x32_6t122
*I *2104:ADDRESS[4] I *L 0.0003 *D srambank_256x4x32_6t122
*I *2101:ADDRESS[4] I *L 0.0003 *D srambank_256x4x32_6t122
*I *2097:ADDRESS[4] I *L 0.0003 *D srambank_256x4x32_6t122
*I *2111:ADDRESS[4] I *L 0.0003 *D srambank_256x4x32_6t122
*I *2105:ADDRESS[4] I *L 0.0003 *D srambank_256x4x32_6t122
*I *2100:ADDRESS[4] I *L 0.0003 *D srambank_256x4x32_6t122
*I *2099:ADDRESS[4] I *L 0.0003 *D srambank_256x4x32_6t122
*I *2109:ADDRESS[4] I *L 0.0003 *D srambank_256x4x32_6t122
*I *2108:ADDRESS[4] I *L 0.0003 *D srambank_256x4x32_6t122
*I *2102:ADDRESS[4] I *L 0.0003 *D srambank_256x4x32_6t122
*I *2595:Y O *L 0.0000 *D AO22x1_ASAP7_75t_L

*CAP
1 *2098:ADDRESS[4] 0
2 *2112:ADDRESS[4] 0
3 *2106:ADDRESS[4] 0
4 *2107:ADDRESS[4] 0
5 *2103:ADDRESS[4] 0
6 *2110:ADDRESS[4] 0
7 *2104:ADDRESS[4] 0
8 *2101:ADDRESS[4] 0
9 *2097:ADDRESS[4] 0
10 *2111:ADDRESS[4] 0
11 *2105:ADDRESS[4] 0
12 *2100:ADDRESS[4] 0
13 *2099:ADDRESS[4] 0
14 *2109:ADDRESS[4] 0
15 *2108:ADDRESS[4] 0
16 *2102:ADDRESS[4] 0

*RES
1 *2595:Y *2098:ADDRESS[4] 0
2 *2595:Y *2112:ADDRESS[4] 0
3 *2595:Y *2106:ADDRESS[4] 0
4 *2595:Y *2107:ADDRESS[4] 0
5 *2595:Y *2103:ADDRESS[4] 0
6 *2595:Y *2110:ADDRESS[4] 0
7 *2595:Y *2104:ADDRESS[4] 0
8 *2595:Y *2101:ADDRESS[4] 0
9 *2595:Y *2097:ADDRESS[4] 0
10 *2595:Y *2111:ADDRESS[4] 0
11 *2595:Y *2105:ADDRESS[4] 0
12 *2595:Y *2100:ADDRESS[4] 0
13 *2595:Y *2099:ADDRESS[4] 0
14 *2595:Y *2109:ADDRESS[4] 0
15 *2595:Y *2108:ADDRESS[4] 0
16 *2595:Y *2102:ADDRESS[4] 0
*END

*D_NET *234 0.000000

*CONN
*I *2098:ADDRESS[5] I *L 0.0003 *D srambank_256x4x32_6t122
*I *2112:ADDRESS[5] I *L 0.0003 *D srambank_256x4x32_6t122
*I *2106:ADDRESS[5] I *L 0.0003 *D srambank_256x4x32_6t122
*I *2107:ADDRESS[5] I *L 0.0003 *D srambank_256x4x32_6t122
*I *2103:ADDRESS[5] I *L 0.0003 *D srambank_256x4x32_6t122
*I *2110:ADDRESS[5] I *L 0.0003 *D srambank_256x4x32_6t122
*I *2104:ADDRESS[5] I *L 0.0003 *D srambank_256x4x32_6t122
*I *2101:ADDRESS[5] I *L 0.0003 *D srambank_256x4x32_6t122
*I *2097:ADDRESS[5] I *L 0.0003 *D srambank_256x4x32_6t122
*I *2111:ADDRESS[5] I *L 0.0003 *D srambank_256x4x32_6t122
*I *2105:ADDRESS[5] I *L 0.0003 *D srambank_256x4x32_6t122
*I *2100:ADDRESS[5] I *L 0.0003 *D srambank_256x4x32_6t122
*I *2099:ADDRESS[5] I *L 0.0003 *D srambank_256x4x32_6t122
*I *2109:ADDRESS[5] I *L 0.0003 *D srambank_256x4x32_6t122
*I *2108:ADDRESS[5] I *L 0.0003 *D srambank_256x4x32_6t122
*I *2102:ADDRESS[5] I *L 0.0003 *D srambank_256x4x32_6t122
*I *2590:Y O *L 0.0000 *D AO22x1_ASAP7_75t_L

*CAP
1 *2098:ADDRESS[5] 0
2 *2112:ADDRESS[5] 0
3 *2106:ADDRESS[5] 0
4 *2107:ADDRESS[5] 0
5 *2103:ADDRESS[5] 0
6 *2110:ADDRESS[5] 0
7 *2104:ADDRESS[5] 0
8 *2101:ADDRESS[5] 0
9 *2097:ADDRESS[5] 0
10 *2111:ADDRESS[5] 0
11 *2105:ADDRESS[5] 0
12 *2100:ADDRESS[5] 0
13 *2099:ADDRESS[5] 0
14 *2109:ADDRESS[5] 0
15 *2108:ADDRESS[5] 0
16 *2102:ADDRESS[5] 0

*RES
1 *2590:Y *2098:ADDRESS[5] 0
2 *2590:Y *2112:ADDRESS[5] 0
3 *2590:Y *2106:ADDRESS[5] 0
4 *2590:Y *2107:ADDRESS[5] 0
5 *2590:Y *2103:ADDRESS[5] 0
6 *2590:Y *2110:ADDRESS[5] 0
7 *2590:Y *2104:ADDRESS[5] 0
8 *2590:Y *2101:ADDRESS[5] 0
9 *2590:Y *2097:ADDRESS[5] 0
10 *2590:Y *2111:ADDRESS[5] 0
11 *2590:Y *2105:ADDRESS[5] 0
12 *2590:Y *2100:ADDRESS[5] 0
13 *2590:Y *2099:ADDRESS[5] 0
14 *2590:Y *2109:ADDRESS[5] 0
15 *2590:Y *2108:ADDRESS[5] 0
16 *2590:Y *2102:ADDRESS[5] 0
*END

*D_NET *235 0.000000

*CONN
*I *2098:ADDRESS[6] I *L 0.0003 *D srambank_256x4x32_6t122
*I *2112:ADDRESS[6] I *L 0.0003 *D srambank_256x4x32_6t122
*I *2106:ADDRESS[6] I *L 0.0003 *D srambank_256x4x32_6t122
*I *2107:ADDRESS[6] I *L 0.0003 *D srambank_256x4x32_6t122
*I *2103:ADDRESS[6] I *L 0.0003 *D srambank_256x4x32_6t122
*I *2110:ADDRESS[6] I *L 0.0003 *D srambank_256x4x32_6t122
*I *2104:ADDRESS[6] I *L 0.0003 *D srambank_256x4x32_6t122
*I *2101:ADDRESS[6] I *L 0.0003 *D srambank_256x4x32_6t122
*I *2097:ADDRESS[6] I *L 0.0003 *D srambank_256x4x32_6t122
*I *2111:ADDRESS[6] I *L 0.0003 *D srambank_256x4x32_6t122
*I *2105:ADDRESS[6] I *L 0.0003 *D srambank_256x4x32_6t122
*I *2100:ADDRESS[6] I *L 0.0003 *D srambank_256x4x32_6t122
*I *2099:ADDRESS[6] I *L 0.0003 *D srambank_256x4x32_6t122
*I *2109:ADDRESS[6] I *L 0.0003 *D srambank_256x4x32_6t122
*I *2108:ADDRESS[6] I *L 0.0003 *D srambank_256x4x32_6t122
*I *2102:ADDRESS[6] I *L 0.0003 *D srambank_256x4x32_6t122
*I *2588:Y O *L 0.0000 *D AO22x1_ASAP7_75t_L

*CAP
1 *2098:ADDRESS[6] 0
2 *2112:ADDRESS[6] 0
3 *2106:ADDRESS[6] 0
4 *2107:ADDRESS[6] 0
5 *2103:ADDRESS[6] 0
6 *2110:ADDRESS[6] 0
7 *2104:ADDRESS[6] 0
8 *2101:ADDRESS[6] 0
9 *2097:ADDRESS[6] 0
10 *2111:ADDRESS[6] 0
11 *2105:ADDRESS[6] 0
12 *2100:ADDRESS[6] 0
13 *2099:ADDRESS[6] 0
14 *2109:ADDRESS[6] 0
15 *2108:ADDRESS[6] 0
16 *2102:ADDRESS[6] 0

*RES
1 *2588:Y *2098:ADDRESS[6] 0
2 *2588:Y *2112:ADDRESS[6] 0
3 *2588:Y *2106:ADDRESS[6] 0
4 *2588:Y *2107:ADDRESS[6] 0
5 *2588:Y *2103:ADDRESS[6] 0
6 *2588:Y *2110:ADDRESS[6] 0
7 *2588:Y *2104:ADDRESS[6] 0
8 *2588:Y *2101:ADDRESS[6] 0
9 *2588:Y *2097:ADDRESS[6] 0
10 *2588:Y *2111:ADDRESS[6] 0
11 *2588:Y *2105:ADDRESS[6] 0
12 *2588:Y *2100:ADDRESS[6] 0
13 *2588:Y *2099:ADDRESS[6] 0
14 *2588:Y *2109:ADDRESS[6] 0
15 *2588:Y *2108:ADDRESS[6] 0
16 *2588:Y *2102:ADDRESS[6] 0
*END

*D_NET *236 0.000000

*CONN
*I *2098:ADDRESS[7] I *L 0.0003 *D srambank_256x4x32_6t122
*I *2112:ADDRESS[7] I *L 0.0003 *D srambank_256x4x32_6t122
*I *2106:ADDRESS[7] I *L 0.0003 *D srambank_256x4x32_6t122
*I *2107:ADDRESS[7] I *L 0.0003 *D srambank_256x4x32_6t122
*I *2103:ADDRESS[7] I *L 0.0003 *D srambank_256x4x32_6t122
*I *2110:ADDRESS[7] I *L 0.0003 *D srambank_256x4x32_6t122
*I *2104:ADDRESS[7] I *L 0.0003 *D srambank_256x4x32_6t122
*I *2101:ADDRESS[7] I *L 0.0003 *D srambank_256x4x32_6t122
*I *2097:ADDRESS[7] I *L 0.0003 *D srambank_256x4x32_6t122
*I *2111:ADDRESS[7] I *L 0.0003 *D srambank_256x4x32_6t122
*I *2105:ADDRESS[7] I *L 0.0003 *D srambank_256x4x32_6t122
*I *2100:ADDRESS[7] I *L 0.0003 *D srambank_256x4x32_6t122
*I *2099:ADDRESS[7] I *L 0.0003 *D srambank_256x4x32_6t122
*I *2109:ADDRESS[7] I *L 0.0003 *D srambank_256x4x32_6t122
*I *2108:ADDRESS[7] I *L 0.0003 *D srambank_256x4x32_6t122
*I *2102:ADDRESS[7] I *L 0.0003 *D srambank_256x4x32_6t122
*I *2594:Y O *L 0.0000 *D AO22x1_ASAP7_75t_L

*CAP
1 *2098:ADDRESS[7] 0
2 *2112:ADDRESS[7] 0
3 *2106:ADDRESS[7] 0
4 *2107:ADDRESS[7] 0
5 *2103:ADDRESS[7] 0
6 *2110:ADDRESS[7] 0
7 *2104:ADDRESS[7] 0
8 *2101:ADDRESS[7] 0
9 *2097:ADDRESS[7] 0
10 *2111:ADDRESS[7] 0
11 *2105:ADDRESS[7] 0
12 *2100:ADDRESS[7] 0
13 *2099:ADDRESS[7] 0
14 *2109:ADDRESS[7] 0
15 *2108:ADDRESS[7] 0
16 *2102:ADDRESS[7] 0

*RES
1 *2594:Y *2098:ADDRESS[7] 0
2 *2594:Y *2112:ADDRESS[7] 0
3 *2594:Y *2106:ADDRESS[7] 0
4 *2594:Y *2107:ADDRESS[7] 0
5 *2594:Y *2103:ADDRESS[7] 0
6 *2594:Y *2110:ADDRESS[7] 0
7 *2594:Y *2104:ADDRESS[7] 0
8 *2594:Y *2101:ADDRESS[7] 0
9 *2594:Y *2097:ADDRESS[7] 0
10 *2594:Y *2111:ADDRESS[7] 0
11 *2594:Y *2105:ADDRESS[7] 0
12 *2594:Y *2100:ADDRESS[7] 0
13 *2594:Y *2099:ADDRESS[7] 0
14 *2594:Y *2109:ADDRESS[7] 0
15 *2594:Y *2108:ADDRESS[7] 0
16 *2594:Y *2102:ADDRESS[7] 0
*END

*D_NET *237 0.000000

*CONN
*I *2098:ADDRESS[8] I *L 0.0003 *D srambank_256x4x32_6t122
*I *2112:ADDRESS[8] I *L 0.0003 *D srambank_256x4x32_6t122
*I *2106:ADDRESS[8] I *L 0.0003 *D srambank_256x4x32_6t122
*I *2107:ADDRESS[8] I *L 0.0003 *D srambank_256x4x32_6t122
*I *2103:ADDRESS[8] I *L 0.0003 *D srambank_256x4x32_6t122
*I *2110:ADDRESS[8] I *L 0.0003 *D srambank_256x4x32_6t122
*I *2104:ADDRESS[8] I *L 0.0003 *D srambank_256x4x32_6t122
*I *2101:ADDRESS[8] I *L 0.0003 *D srambank_256x4x32_6t122
*I *2097:ADDRESS[8] I *L 0.0003 *D srambank_256x4x32_6t122
*I *2111:ADDRESS[8] I *L 0.0003 *D srambank_256x4x32_6t122
*I *2105:ADDRESS[8] I *L 0.0003 *D srambank_256x4x32_6t122
*I *2100:ADDRESS[8] I *L 0.0003 *D srambank_256x4x32_6t122
*I *2099:ADDRESS[8] I *L 0.0003 *D srambank_256x4x32_6t122
*I *2109:ADDRESS[8] I *L 0.0003 *D srambank_256x4x32_6t122
*I *2108:ADDRESS[8] I *L 0.0003 *D srambank_256x4x32_6t122
*I *2102:ADDRESS[8] I *L 0.0003 *D srambank_256x4x32_6t122
*I *2586:Y O *L 0.0000 *D AO22x1_ASAP7_75t_L

*CAP
1 *2098:ADDRESS[8] 0
2 *2112:ADDRESS[8] 0
3 *2106:ADDRESS[8] 0
4 *2107:ADDRESS[8] 0
5 *2103:ADDRESS[8] 0
6 *2110:ADDRESS[8] 0
7 *2104:ADDRESS[8] 0
8 *2101:ADDRESS[8] 0
9 *2097:ADDRESS[8] 0
10 *2111:ADDRESS[8] 0
11 *2105:ADDRESS[8] 0
12 *2100:ADDRESS[8] 0
13 *2099:ADDRESS[8] 0
14 *2109:ADDRESS[8] 0
15 *2108:ADDRESS[8] 0
16 *2102:ADDRESS[8] 0

*RES
1 *2586:Y *2098:ADDRESS[8] 0
2 *2586:Y *2112:ADDRESS[8] 0
3 *2586:Y *2106:ADDRESS[8] 0
4 *2586:Y *2107:ADDRESS[8] 0
5 *2586:Y *2103:ADDRESS[8] 0
6 *2586:Y *2110:ADDRESS[8] 0
7 *2586:Y *2104:ADDRESS[8] 0
8 *2586:Y *2101:ADDRESS[8] 0
9 *2586:Y *2097:ADDRESS[8] 0
10 *2586:Y *2111:ADDRESS[8] 0
11 *2586:Y *2105:ADDRESS[8] 0
12 *2586:Y *2100:ADDRESS[8] 0
13 *2586:Y *2099:ADDRESS[8] 0
14 *2586:Y *2109:ADDRESS[8] 0
15 *2586:Y *2108:ADDRESS[8] 0
16 *2586:Y *2102:ADDRESS[8] 0
*END

*D_NET *238 0.000000

*CONN
*I *2098:ADDRESS[9] I *L 0.0003 *D srambank_256x4x32_6t122
*I *2112:ADDRESS[9] I *L 0.0003 *D srambank_256x4x32_6t122
*I *2106:ADDRESS[9] I *L 0.0003 *D srambank_256x4x32_6t122
*I *2107:ADDRESS[9] I *L 0.0003 *D srambank_256x4x32_6t122
*I *2103:ADDRESS[9] I *L 0.0003 *D srambank_256x4x32_6t122
*I *2110:ADDRESS[9] I *L 0.0003 *D srambank_256x4x32_6t122
*I *2104:ADDRESS[9] I *L 0.0003 *D srambank_256x4x32_6t122
*I *2101:ADDRESS[9] I *L 0.0003 *D srambank_256x4x32_6t122
*I *2097:ADDRESS[9] I *L 0.0003 *D srambank_256x4x32_6t122
*I *2111:ADDRESS[9] I *L 0.0003 *D srambank_256x4x32_6t122
*I *2105:ADDRESS[9] I *L 0.0003 *D srambank_256x4x32_6t122
*I *2100:ADDRESS[9] I *L 0.0003 *D srambank_256x4x32_6t122
*I *2099:ADDRESS[9] I *L 0.0003 *D srambank_256x4x32_6t122
*I *2109:ADDRESS[9] I *L 0.0003 *D srambank_256x4x32_6t122
*I *2108:ADDRESS[9] I *L 0.0003 *D srambank_256x4x32_6t122
*I *2102:ADDRESS[9] I *L 0.0003 *D srambank_256x4x32_6t122
*I *2591:Y O *L 0.0000 *D AO22x1_ASAP7_75t_L

*CAP
1 *2098:ADDRESS[9] 0
2 *2112:ADDRESS[9] 0
3 *2106:ADDRESS[9] 0
4 *2107:ADDRESS[9] 0
5 *2103:ADDRESS[9] 0
6 *2110:ADDRESS[9] 0
7 *2104:ADDRESS[9] 0
8 *2101:ADDRESS[9] 0
9 *2097:ADDRESS[9] 0
10 *2111:ADDRESS[9] 0
11 *2105:ADDRESS[9] 0
12 *2100:ADDRESS[9] 0
13 *2099:ADDRESS[9] 0
14 *2109:ADDRESS[9] 0
15 *2108:ADDRESS[9] 0
16 *2102:ADDRESS[9] 0

*RES
1 *2591:Y *2098:ADDRESS[9] 0
2 *2591:Y *2112:ADDRESS[9] 0
3 *2591:Y *2106:ADDRESS[9] 0
4 *2591:Y *2107:ADDRESS[9] 0
5 *2591:Y *2103:ADDRESS[9] 0
6 *2591:Y *2110:ADDRESS[9] 0
7 *2591:Y *2104:ADDRESS[9] 0
8 *2591:Y *2101:ADDRESS[9] 0
9 *2591:Y *2097:ADDRESS[9] 0
10 *2591:Y *2111:ADDRESS[9] 0
11 *2591:Y *2105:ADDRESS[9] 0
12 *2591:Y *2100:ADDRESS[9] 0
13 *2591:Y *2099:ADDRESS[9] 0
14 *2591:Y *2109:ADDRESS[9] 0
15 *2591:Y *2108:ADDRESS[9] 0
16 *2591:Y *2102:ADDRESS[9] 0
*END

*D_NET *239 0.000000

*CONN
*I *2536:B2 I *L 0.0004 *D AOI22xp33_ASAP7_75t_L
*I *2497:A I *L 0.0006 *D INVx1_ASAP7_75t_L
*I *2447:C I *L 0.0006 *D AND3x1_ASAP7_75t_L
*I *2179:B I *L 0.0005 *D NOR3xp33_ASAP7_75t_L
*I *2455:A I *L 0.0005 *D NAND2xp5_ASAP7_75t_L
*I *2478:B I *L 0.0005 *D NAND2xp5_ASAP7_75t_L
*I *2545:Y O *L 0.0000 *D AO22x1_ASAP7_75t_L

*CAP
1 *2536:B2 0
2 *2497:A 0
3 *2447:C 0
4 *2179:B 0
5 *2455:A 0
6 *2478:B 0

*RES
1 *2545:Y *2536:B2 0
2 *2545:Y *2497:A 0
3 *2545:Y *2447:C 0
4 *2545:Y *2179:B 0
5 *2545:Y *2455:A 0
6 *2545:Y *2478:B 0
*END

*D_NET *240 0.000000

*CONN
*I *2534:B2 I *L 0.0004 *D AOI22xp33_ASAP7_75t_L
*I *2457:B I *L 0.0005 *D NAND2xp5_ASAP7_75t_L
*I *2458:B I *L 0.0004 *D NOR2xp33_ASAP7_75t_L
*I *2544:Y O *L 0.0000 *D AO22x1_ASAP7_75t_L

*CAP
1 *2534:B2 0
2 *2457:B 0
3 *2458:B 0

*RES
1 *2544:Y *2534:B2 0
2 *2544:Y *2457:B 0
3 *2544:Y *2458:B 0
*END

*D_NET *241 0.000000

*CONN
*I *2535:B2 I *L 0.0004 *D AOI22xp33_ASAP7_75t_L
*I *2495:A I *L 0.0006 *D INVx1_ASAP7_75t_L
*I *2453:A I *L 0.0003 *D NOR2xp33_ASAP7_75t_L
*I *2442:A I *L 0.0005 *D NAND2xp5_ASAP7_75t_L
*I *2456:A I *L 0.0003 *D NOR2xp33_ASAP7_75t_L
*I *2487:B I *L 0.0004 *D NOR2xp33_ASAP7_75t_L
*I *2543:Y O *L 0.0000 *D AO22x1_ASAP7_75t_L

*CAP
1 *2535:B2 0
2 *2495:A 0
3 *2453:A 0
4 *2442:A 0
5 *2456:A 0
6 *2487:B 0

*RES
1 *2543:Y *2535:B2 0
2 *2543:Y *2495:A 0
3 *2543:Y *2453:A 0
4 *2543:Y *2442:A 0
5 *2543:Y *2456:A 0
6 *2543:Y *2487:B 0
*END

*D_NET *242 0.000000

*CONN
*I *2537:B2 I *L 0.0004 *D AOI22xp33_ASAP7_75t_L
*I *2180:C I *L 0.0005 *D NOR3xp33_ASAP7_75t_L
*I *2179:C I *L 0.0005 *D NOR3xp33_ASAP7_75t_L
*I *2478:A I *L 0.0005 *D NAND2xp5_ASAP7_75t_L
*I *2486:A I *L 0.0003 *D NOR2xp33_ASAP7_75t_L
*I *2487:A I *L 0.0003 *D NOR2xp33_ASAP7_75t_L
*I *2488:A I *L 0.0005 *D NAND2xp5_ASAP7_75t_L
*I *2542:Y O *L 0.0000 *D AO22x1_ASAP7_75t_L

*CAP
1 *2537:B2 0
2 *2180:C 0
3 *2179:C 0
4 *2478:A 0
5 *2486:A 0
6 *2487:A 0
7 *2488:A 0

*RES
1 *2542:Y *2537:B2 0
2 *2542:Y *2180:C 0
3 *2542:Y *2179:C 0
4 *2542:Y *2478:A 0
5 *2542:Y *2486:A 0
6 *2542:Y *2487:A 0
7 *2542:Y *2488:A 0
*END

*D_NET *243 0.000000

*CONN
*I *2963:B I *L 0.0006 *D AND3x1_ASAP7_75t_L
*I *2582:A1 I *L 0.0004 *D AO22x1_ASAP7_75t_L
*I *2133:Y O *L 0.0000 *D NAND5xp2_ASAP7_75t_L

*CAP
1 *2963:B 0
2 *2582:A1 0

*RES
1 *2133:Y *2963:B 0
2 *2133:Y *2582:A1 0
*END

*D_NET *244 0.000000

*CONN
*I *2964:B I *L 0.0006 *D AND3x1_ASAP7_75t_L
*I *2581:A1 I *L 0.0004 *D AO22x1_ASAP7_75t_L
*I *2132:Y O *L 0.0000 *D NAND5xp2_ASAP7_75t_L

*CAP
1 *2964:B 0
2 *2581:A1 0

*RES
1 *2132:Y *2964:B 0
2 *2132:Y *2581:A1 0
*END

*D_NET *245 0.000000

*CONN
*I *2965:B I *L 0.0006 *D AND3x1_ASAP7_75t_L
*I *2579:A1 I *L 0.0004 *D AO22x1_ASAP7_75t_L
*I *2144:Y O *L 0.0000 *D NAND5xp2_ASAP7_75t_L

*CAP
1 *2965:B 0
2 *2579:A1 0

*RES
1 *2144:Y *2965:B 0
2 *2144:Y *2579:A1 0
*END

*D_NET *246 0.000000

*CONN
*I *2966:B I *L 0.0006 *D AND3x1_ASAP7_75t_L
*I *2577:A1 I *L 0.0004 *D AO22x1_ASAP7_75t_L
*I *2113:Y O *L 0.0000 *D NAND5xp2_ASAP7_75t_L

*CAP
1 *2966:B 0
2 *2577:A1 0

*RES
1 *2113:Y *2966:B 0
2 *2113:Y *2577:A1 0
*END

*D_NET *247 0.000000

*CONN
*I *2945:B I *L 0.0006 *D AND3x1_ASAP7_75t_L
*I *2576:A1 I *L 0.0004 *D AO22x1_ASAP7_75t_L
*I *2126:Y O *L 0.0000 *D NAND5xp2_ASAP7_75t_L

*CAP
1 *2945:B 0
2 *2576:A1 0

*RES
1 *2126:Y *2945:B 0
2 *2126:Y *2576:A1 0
*END

*D_NET *248 0.000000

*CONN
*I *2944:B I *L 0.0006 *D AND3x1_ASAP7_75t_L
*I *2575:A1 I *L 0.0004 *D AO22x1_ASAP7_75t_L
*I *2123:Y O *L 0.0000 *D NAND5xp2_ASAP7_75t_L

*CAP
1 *2944:B 0
2 *2575:A1 0

*RES
1 *2123:Y *2944:B 0
2 *2123:Y *2575:A1 0
*END

*D_NET *249 0.000000

*CONN
*I *2985:B I *L 0.0006 *D AND3x1_ASAP7_75t_L
*I *2572:A1 I *L 0.0004 *D AO22x1_ASAP7_75t_L
*I *2122:Y O *L 0.0000 *D NAND5xp2_ASAP7_75t_L

*CAP
1 *2985:B 0
2 *2572:A1 0

*RES
1 *2122:Y *2985:B 0
2 *2122:Y *2572:A1 0
*END

*D_NET *250 0.000000

*CONN
*I *2970:B I *L 0.0006 *D AND3x1_ASAP7_75t_L
*I *2571:A1 I *L 0.0004 *D AO22x1_ASAP7_75t_L
*I *2121:Y O *L 0.0000 *D NAND5xp2_ASAP7_75t_L

*CAP
1 *2970:B 0
2 *2571:A1 0

*RES
1 *2121:Y *2970:B 0
2 *2121:Y *2571:A1 0
*END

*D_NET *251 0.000000

*CONN
*I *2971:B I *L 0.0006 *D AND3x1_ASAP7_75t_L
*I *2585:A1 I *L 0.0004 *D AO22x1_ASAP7_75t_L
*I *2118:Y O *L 0.0000 *D NAND5xp2_ASAP7_75t_L

*CAP
1 *2971:B 0
2 *2585:A1 0

*RES
1 *2118:Y *2971:B 0
2 *2118:Y *2585:A1 0
*END

*D_NET *252 0.000000

*CONN
*I *2972:B I *L 0.0006 *D AND3x1_ASAP7_75t_L
*I *2568:A1 I *L 0.0004 *D AO22x1_ASAP7_75t_L
*I *2117:Y O *L 0.0000 *D NAND5xp2_ASAP7_75t_L

*CAP
1 *2972:B 0
2 *2568:A1 0

*RES
1 *2117:Y *2972:B 0
2 *2117:Y *2568:A1 0
*END

*D_NET *253 0.000000

*CONN
*I *2973:B I *L 0.0006 *D AND3x1_ASAP7_75t_L
*I *2567:A1 I *L 0.0004 *D AO22x1_ASAP7_75t_L
*I *2129:Y O *L 0.0000 *D NAND5xp2_ASAP7_75t_L

*CAP
1 *2973:B 0
2 *2567:A1 0

*RES
1 *2129:Y *2973:B 0
2 *2129:Y *2567:A1 0
*END

*D_NET *254 0.000000

*CONN
*I *2974:B I *L 0.0006 *D AND3x1_ASAP7_75t_L
*I *2566:A1 I *L 0.0004 *D AO22x1_ASAP7_75t_L
*I *2143:Y O *L 0.0000 *D NAND5xp2_ASAP7_75t_L

*CAP
1 *2974:B 0
2 *2566:A1 0

*RES
1 *2143:Y *2974:B 0
2 *2143:Y *2566:A1 0
*END

*D_NET *255 0.000000

*CONN
*I *2975:B I *L 0.0006 *D AND3x1_ASAP7_75t_L
*I *2563:A1 I *L 0.0004 *D AO22x1_ASAP7_75t_L
*I *2141:Y O *L 0.0000 *D NAND5xp2_ASAP7_75t_L

*CAP
1 *2975:B 0
2 *2563:A1 0

*RES
1 *2141:Y *2975:B 0
2 *2141:Y *2563:A1 0
*END

*D_NET *256 0.000000

*CONN
*I *2976:B I *L 0.0006 *D AND3x1_ASAP7_75t_L
*I *2562:A1 I *L 0.0004 *D AO22x1_ASAP7_75t_L
*I *2139:Y O *L 0.0000 *D NAND5xp2_ASAP7_75t_L

*CAP
1 *2976:B 0
2 *2562:A1 0

*RES
1 *2139:Y *2976:B 0
2 *2139:Y *2562:A1 0
*END

*D_NET *257 0.000000

*CONN
*I *2977:B I *L 0.0006 *D AND3x1_ASAP7_75t_L
*I *2561:A1 I *L 0.0004 *D AO22x1_ASAP7_75t_L
*I *2138:Y O *L 0.0000 *D NAND5xp2_ASAP7_75t_L

*CAP
1 *2977:B 0
2 *2561:A1 0

*RES
1 *2138:Y *2977:B 0
2 *2138:Y *2561:A1 0
*END

*D_NET *258 0.000000

*CONN
*I *2978:B I *L 0.0006 *D AND3x1_ASAP7_75t_L
*I *2559:A1 I *L 0.0004 *D AO22x1_ASAP7_75t_L
*I *2137:Y O *L 0.0000 *D NAND5xp2_ASAP7_75t_L

*CAP
1 *2978:B 0
2 *2559:A1 0

*RES
1 *2137:Y *2978:B 0
2 *2137:Y *2559:A1 0
*END

*D_NET *259 0.000000

*CONN
*I *2979:B I *L 0.0006 *D AND3x1_ASAP7_75t_L
*I *2558:A1 I *L 0.0004 *D AO22x1_ASAP7_75t_L
*I *2131:Y O *L 0.0000 *D NAND5xp2_ASAP7_75t_L

*CAP
1 *2979:B 0
2 *2558:A1 0

*RES
1 *2131:Y *2979:B 0
2 *2131:Y *2558:A1 0
*END

*D_NET *260 0.000000

*CONN
*I *2980:B I *L 0.0006 *D AND3x1_ASAP7_75t_L
*I *2557:A1 I *L 0.0004 *D AO22x1_ASAP7_75t_L
*I *2127:Y O *L 0.0000 *D NAND5xp2_ASAP7_75t_L

*CAP
1 *2980:B 0
2 *2557:A1 0

*RES
1 *2127:Y *2980:B 0
2 *2127:Y *2557:A1 0
*END

*D_NET *261 0.000000

*CONN
*I *2981:B I *L 0.0006 *D AND3x1_ASAP7_75t_L
*I *2570:A1 I *L 0.0004 *D AO22x1_ASAP7_75t_L
*I *2125:Y O *L 0.0000 *D NAND5xp2_ASAP7_75t_L

*CAP
1 *2981:B 0
2 *2570:A1 0

*RES
1 *2125:Y *2981:B 0
2 *2125:Y *2570:A1 0
*END

*D_NET *262 0.000000

*CONN
*I *2982:B I *L 0.0006 *D AND3x1_ASAP7_75t_L
*I *2584:A1 I *L 0.0004 *D AO22x1_ASAP7_75t_L
*I *2120:Y O *L 0.0000 *D NAND5xp2_ASAP7_75t_L

*CAP
1 *2982:B 0
2 *2584:A1 0

*RES
1 *2120:Y *2982:B 0
2 *2120:Y *2584:A1 0
*END

*D_NET *263 0.000000

*CONN
*I *2983:B I *L 0.0006 *D AND3x1_ASAP7_75t_L
*I *2583:A1 I *L 0.0004 *D AO22x1_ASAP7_75t_L
*I *2116:Y O *L 0.0000 *D NAND5xp2_ASAP7_75t_L

*CAP
1 *2983:B 0
2 *2583:A1 0

*RES
1 *2116:Y *2983:B 0
2 *2116:Y *2583:A1 0
*END

*D_NET *264 0.000000

*CONN
*I *2984:B I *L 0.0006 *D AND3x1_ASAP7_75t_L
*I *2580:A1 I *L 0.0004 *D AO22x1_ASAP7_75t_L
*I *2142:Y O *L 0.0000 *D NAND5xp2_ASAP7_75t_L

*CAP
1 *2984:B 0
2 *2580:A1 0

*RES
1 *2142:Y *2984:B 0
2 *2142:Y *2580:A1 0
*END

*D_NET *265 0.000000

*CONN
*I *2969:B I *L 0.0006 *D AND3x1_ASAP7_75t_L
*I *2578:A1 I *L 0.0004 *D AO22x1_ASAP7_75t_L
*I *2140:Y O *L 0.0000 *D NAND5xp2_ASAP7_75t_L

*CAP
1 *2969:B 0
2 *2578:A1 0

*RES
1 *2140:Y *2969:B 0
2 *2140:Y *2578:A1 0
*END

*D_NET *266 0.000000

*CONN
*I *2986:B I *L 0.0006 *D AND3x1_ASAP7_75t_L
*I *2574:A1 I *L 0.0004 *D AO22x1_ASAP7_75t_L
*I *2136:Y O *L 0.0000 *D NAND5xp2_ASAP7_75t_L

*CAP
1 *2986:B 0
2 *2574:A1 0

*RES
1 *2136:Y *2986:B 0
2 *2136:Y *2574:A1 0
*END

*D_NET *267 0.000000

*CONN
*I *2987:B I *L 0.0006 *D AND3x1_ASAP7_75t_L
*I *2554:A1 I *L 0.0004 *D AO22x1_ASAP7_75t_L
*I *2130:Y O *L 0.0000 *D NAND5xp2_ASAP7_75t_L

*CAP
1 *2987:B 0
2 *2554:A1 0

*RES
1 *2130:Y *2987:B 0
2 *2130:Y *2554:A1 0
*END

*D_NET *268 0.000000

*CONN
*I *2988:B I *L 0.0006 *D AND3x1_ASAP7_75t_L
*I *2565:A1 I *L 0.0004 *D AO22x1_ASAP7_75t_L
*I *2119:Y O *L 0.0000 *D NAND5xp2_ASAP7_75t_L

*CAP
1 *2988:B 0
2 *2565:A1 0

*RES
1 *2119:Y *2988:B 0
2 *2119:Y *2565:A1 0
*END

*D_NET *269 0.000000

*CONN
*I *2989:B I *L 0.0006 *D AND3x1_ASAP7_75t_L
*I *2564:A1 I *L 0.0004 *D AO22x1_ASAP7_75t_L
*I *2115:Y O *L 0.0000 *D NAND5xp2_ASAP7_75t_L

*CAP
1 *2989:B 0
2 *2564:A1 0

*RES
1 *2115:Y *2989:B 0
2 *2115:Y *2564:A1 0
*END

*D_NET *270 0.000000

*CONN
*I *2990:B I *L 0.0006 *D AND3x1_ASAP7_75t_L
*I *2560:A1 I *L 0.0004 *D AO22x1_ASAP7_75t_L
*I *2135:Y O *L 0.0000 *D NAND5xp2_ASAP7_75t_L

*CAP
1 *2990:B 0
2 *2560:A1 0

*RES
1 *2135:Y *2990:B 0
2 *2135:Y *2560:A1 0
*END

*D_NET *271 0.000000

*CONN
*I *2991:B I *L 0.0006 *D AND3x1_ASAP7_75t_L
*I *2556:A1 I *L 0.0004 *D AO22x1_ASAP7_75t_L
*I *2124:Y O *L 0.0000 *D NAND5xp2_ASAP7_75t_L

*CAP
1 *2991:B 0
2 *2556:A1 0

*RES
1 *2124:Y *2991:B 0
2 *2124:Y *2556:A1 0
*END

*D_NET *272 0.000000

*CONN
*I *2992:B I *L 0.0006 *D AND3x1_ASAP7_75t_L
*I *2555:A1 I *L 0.0004 *D AO22x1_ASAP7_75t_L
*I *2134:Y O *L 0.0000 *D NAND5xp2_ASAP7_75t_L

*CAP
1 *2992:B 0
2 *2555:A1 0

*RES
1 *2134:Y *2992:B 0
2 *2134:Y *2555:A1 0
*END

*D_NET *273 0.000000

*CONN
*I *2993:B I *L 0.0006 *D AND3x1_ASAP7_75t_L
*I *2573:A1 I *L 0.0004 *D AO22x1_ASAP7_75t_L
*I *2114:Y O *L 0.0000 *D NAND5xp2_ASAP7_75t_L

*CAP
1 *2993:B 0
2 *2573:A1 0

*RES
1 *2114:Y *2993:B 0
2 *2114:Y *2573:A1 0
*END

*D_NET *274 0.000000

*CONN
*I *2994:B I *L 0.0006 *D AND3x1_ASAP7_75t_L
*I *2569:A1 I *L 0.0004 *D AO22x1_ASAP7_75t_L
*I *2128:Y O *L 0.0000 *D NAND5xp2_ASAP7_75t_L

*CAP
1 *2994:B 0
2 *2569:A1 0

*RES
1 *2128:Y *2994:B 0
2 *2128:Y *2569:A1 0
*END

*D_NET *275 0.000000

*CONN
*I *2098:wd[0] I *L 0.0003 *D srambank_256x4x32_6t122
*I *2112:wd[0] I *L 0.0003 *D srambank_256x4x32_6t122
*I *2106:wd[0] I *L 0.0003 *D srambank_256x4x32_6t122
*I *2107:wd[0] I *L 0.0003 *D srambank_256x4x32_6t122
*I *2103:wd[0] I *L 0.0003 *D srambank_256x4x32_6t122
*I *2110:wd[0] I *L 0.0003 *D srambank_256x4x32_6t122
*I *2104:wd[0] I *L 0.0003 *D srambank_256x4x32_6t122
*I *2101:wd[0] I *L 0.0003 *D srambank_256x4x32_6t122
*I *2097:wd[0] I *L 0.0003 *D srambank_256x4x32_6t122
*I *2111:wd[0] I *L 0.0003 *D srambank_256x4x32_6t122
*I *2105:wd[0] I *L 0.0003 *D srambank_256x4x32_6t122
*I *2100:wd[0] I *L 0.0003 *D srambank_256x4x32_6t122
*I *2099:wd[0] I *L 0.0003 *D srambank_256x4x32_6t122
*I *2109:wd[0] I *L 0.0003 *D srambank_256x4x32_6t122
*I *2108:wd[0] I *L 0.0003 *D srambank_256x4x32_6t122
*I *2102:wd[0] I *L 0.0003 *D srambank_256x4x32_6t122
*I *2582:Y O *L 0.0000 *D AO22x1_ASAP7_75t_L

*CAP
1 *2098:wd[0] 0
2 *2112:wd[0] 0
3 *2106:wd[0] 0
4 *2107:wd[0] 0
5 *2103:wd[0] 0
6 *2110:wd[0] 0
7 *2104:wd[0] 0
8 *2101:wd[0] 0
9 *2097:wd[0] 0
10 *2111:wd[0] 0
11 *2105:wd[0] 0
12 *2100:wd[0] 0
13 *2099:wd[0] 0
14 *2109:wd[0] 0
15 *2108:wd[0] 0
16 *2102:wd[0] 0

*RES
1 *2582:Y *2098:wd[0] 0
2 *2582:Y *2112:wd[0] 0
3 *2582:Y *2106:wd[0] 0
4 *2582:Y *2107:wd[0] 0
5 *2582:Y *2103:wd[0] 0
6 *2582:Y *2110:wd[0] 0
7 *2582:Y *2104:wd[0] 0
8 *2582:Y *2101:wd[0] 0
9 *2582:Y *2097:wd[0] 0
10 *2582:Y *2111:wd[0] 0
11 *2582:Y *2105:wd[0] 0
12 *2582:Y *2100:wd[0] 0
13 *2582:Y *2099:wd[0] 0
14 *2582:Y *2109:wd[0] 0
15 *2582:Y *2108:wd[0] 0
16 *2582:Y *2102:wd[0] 0
*END

*D_NET *276 0.000000

*CONN
*I *2098:wd[1] I *L 0.0003 *D srambank_256x4x32_6t122
*I *2112:wd[1] I *L 0.0003 *D srambank_256x4x32_6t122
*I *2106:wd[1] I *L 0.0003 *D srambank_256x4x32_6t122
*I *2107:wd[1] I *L 0.0003 *D srambank_256x4x32_6t122
*I *2103:wd[1] I *L 0.0003 *D srambank_256x4x32_6t122
*I *2110:wd[1] I *L 0.0003 *D srambank_256x4x32_6t122
*I *2104:wd[1] I *L 0.0003 *D srambank_256x4x32_6t122
*I *2101:wd[1] I *L 0.0003 *D srambank_256x4x32_6t122
*I *2097:wd[1] I *L 0.0003 *D srambank_256x4x32_6t122
*I *2111:wd[1] I *L 0.0003 *D srambank_256x4x32_6t122
*I *2105:wd[1] I *L 0.0003 *D srambank_256x4x32_6t122
*I *2100:wd[1] I *L 0.0003 *D srambank_256x4x32_6t122
*I *2099:wd[1] I *L 0.0003 *D srambank_256x4x32_6t122
*I *2109:wd[1] I *L 0.0003 *D srambank_256x4x32_6t122
*I *2108:wd[1] I *L 0.0003 *D srambank_256x4x32_6t122
*I *2102:wd[1] I *L 0.0003 *D srambank_256x4x32_6t122
*I *2581:Y O *L 0.0000 *D AO22x1_ASAP7_75t_L

*CAP
1 *2098:wd[1] 0
2 *2112:wd[1] 0
3 *2106:wd[1] 0
4 *2107:wd[1] 0
5 *2103:wd[1] 0
6 *2110:wd[1] 0
7 *2104:wd[1] 0
8 *2101:wd[1] 0
9 *2097:wd[1] 0
10 *2111:wd[1] 0
11 *2105:wd[1] 0
12 *2100:wd[1] 0
13 *2099:wd[1] 0
14 *2109:wd[1] 0
15 *2108:wd[1] 0
16 *2102:wd[1] 0

*RES
1 *2581:Y *2098:wd[1] 0
2 *2581:Y *2112:wd[1] 0
3 *2581:Y *2106:wd[1] 0
4 *2581:Y *2107:wd[1] 0
5 *2581:Y *2103:wd[1] 0
6 *2581:Y *2110:wd[1] 0
7 *2581:Y *2104:wd[1] 0
8 *2581:Y *2101:wd[1] 0
9 *2581:Y *2097:wd[1] 0
10 *2581:Y *2111:wd[1] 0
11 *2581:Y *2105:wd[1] 0
12 *2581:Y *2100:wd[1] 0
13 *2581:Y *2099:wd[1] 0
14 *2581:Y *2109:wd[1] 0
15 *2581:Y *2108:wd[1] 0
16 *2581:Y *2102:wd[1] 0
*END

*D_NET *277 0.000000

*CONN
*I *2098:wd[2] I *L 0.0003 *D srambank_256x4x32_6t122
*I *2112:wd[2] I *L 0.0003 *D srambank_256x4x32_6t122
*I *2106:wd[2] I *L 0.0003 *D srambank_256x4x32_6t122
*I *2107:wd[2] I *L 0.0003 *D srambank_256x4x32_6t122
*I *2103:wd[2] I *L 0.0003 *D srambank_256x4x32_6t122
*I *2110:wd[2] I *L 0.0003 *D srambank_256x4x32_6t122
*I *2104:wd[2] I *L 0.0003 *D srambank_256x4x32_6t122
*I *2101:wd[2] I *L 0.0003 *D srambank_256x4x32_6t122
*I *2097:wd[2] I *L 0.0003 *D srambank_256x4x32_6t122
*I *2111:wd[2] I *L 0.0003 *D srambank_256x4x32_6t122
*I *2105:wd[2] I *L 0.0003 *D srambank_256x4x32_6t122
*I *2100:wd[2] I *L 0.0003 *D srambank_256x4x32_6t122
*I *2099:wd[2] I *L 0.0003 *D srambank_256x4x32_6t122
*I *2109:wd[2] I *L 0.0003 *D srambank_256x4x32_6t122
*I *2108:wd[2] I *L 0.0003 *D srambank_256x4x32_6t122
*I *2102:wd[2] I *L 0.0003 *D srambank_256x4x32_6t122
*I *2579:Y O *L 0.0000 *D AO22x1_ASAP7_75t_L

*CAP
1 *2098:wd[2] 0
2 *2112:wd[2] 0
3 *2106:wd[2] 0
4 *2107:wd[2] 0
5 *2103:wd[2] 0
6 *2110:wd[2] 0
7 *2104:wd[2] 0
8 *2101:wd[2] 0
9 *2097:wd[2] 0
10 *2111:wd[2] 0
11 *2105:wd[2] 0
12 *2100:wd[2] 0
13 *2099:wd[2] 0
14 *2109:wd[2] 0
15 *2108:wd[2] 0
16 *2102:wd[2] 0

*RES
1 *2579:Y *2098:wd[2] 0
2 *2579:Y *2112:wd[2] 0
3 *2579:Y *2106:wd[2] 0
4 *2579:Y *2107:wd[2] 0
5 *2579:Y *2103:wd[2] 0
6 *2579:Y *2110:wd[2] 0
7 *2579:Y *2104:wd[2] 0
8 *2579:Y *2101:wd[2] 0
9 *2579:Y *2097:wd[2] 0
10 *2579:Y *2111:wd[2] 0
11 *2579:Y *2105:wd[2] 0
12 *2579:Y *2100:wd[2] 0
13 *2579:Y *2099:wd[2] 0
14 *2579:Y *2109:wd[2] 0
15 *2579:Y *2108:wd[2] 0
16 *2579:Y *2102:wd[2] 0
*END

*D_NET *278 0.000000

*CONN
*I *2098:wd[3] I *L 0.0003 *D srambank_256x4x32_6t122
*I *2112:wd[3] I *L 0.0003 *D srambank_256x4x32_6t122
*I *2106:wd[3] I *L 0.0003 *D srambank_256x4x32_6t122
*I *2107:wd[3] I *L 0.0003 *D srambank_256x4x32_6t122
*I *2103:wd[3] I *L 0.0003 *D srambank_256x4x32_6t122
*I *2110:wd[3] I *L 0.0003 *D srambank_256x4x32_6t122
*I *2104:wd[3] I *L 0.0003 *D srambank_256x4x32_6t122
*I *2101:wd[3] I *L 0.0003 *D srambank_256x4x32_6t122
*I *2097:wd[3] I *L 0.0003 *D srambank_256x4x32_6t122
*I *2111:wd[3] I *L 0.0003 *D srambank_256x4x32_6t122
*I *2105:wd[3] I *L 0.0003 *D srambank_256x4x32_6t122
*I *2100:wd[3] I *L 0.0003 *D srambank_256x4x32_6t122
*I *2099:wd[3] I *L 0.0003 *D srambank_256x4x32_6t122
*I *2109:wd[3] I *L 0.0003 *D srambank_256x4x32_6t122
*I *2108:wd[3] I *L 0.0003 *D srambank_256x4x32_6t122
*I *2102:wd[3] I *L 0.0003 *D srambank_256x4x32_6t122
*I *2577:Y O *L 0.0000 *D AO22x1_ASAP7_75t_L

*CAP
1 *2098:wd[3] 0
2 *2112:wd[3] 0
3 *2106:wd[3] 0
4 *2107:wd[3] 0
5 *2103:wd[3] 0
6 *2110:wd[3] 0
7 *2104:wd[3] 0
8 *2101:wd[3] 0
9 *2097:wd[3] 0
10 *2111:wd[3] 0
11 *2105:wd[3] 0
12 *2100:wd[3] 0
13 *2099:wd[3] 0
14 *2109:wd[3] 0
15 *2108:wd[3] 0
16 *2102:wd[3] 0

*RES
1 *2577:Y *2098:wd[3] 0
2 *2577:Y *2112:wd[3] 0
3 *2577:Y *2106:wd[3] 0
4 *2577:Y *2107:wd[3] 0
5 *2577:Y *2103:wd[3] 0
6 *2577:Y *2110:wd[3] 0
7 *2577:Y *2104:wd[3] 0
8 *2577:Y *2101:wd[3] 0
9 *2577:Y *2097:wd[3] 0
10 *2577:Y *2111:wd[3] 0
11 *2577:Y *2105:wd[3] 0
12 *2577:Y *2100:wd[3] 0
13 *2577:Y *2099:wd[3] 0
14 *2577:Y *2109:wd[3] 0
15 *2577:Y *2108:wd[3] 0
16 *2577:Y *2102:wd[3] 0
*END

*D_NET *279 0.000000

*CONN
*I *2098:wd[4] I *L 0.0003 *D srambank_256x4x32_6t122
*I *2112:wd[4] I *L 0.0003 *D srambank_256x4x32_6t122
*I *2106:wd[4] I *L 0.0003 *D srambank_256x4x32_6t122
*I *2107:wd[4] I *L 0.0003 *D srambank_256x4x32_6t122
*I *2103:wd[4] I *L 0.0003 *D srambank_256x4x32_6t122
*I *2110:wd[4] I *L 0.0003 *D srambank_256x4x32_6t122
*I *2104:wd[4] I *L 0.0003 *D srambank_256x4x32_6t122
*I *2101:wd[4] I *L 0.0003 *D srambank_256x4x32_6t122
*I *2097:wd[4] I *L 0.0003 *D srambank_256x4x32_6t122
*I *2111:wd[4] I *L 0.0003 *D srambank_256x4x32_6t122
*I *2105:wd[4] I *L 0.0003 *D srambank_256x4x32_6t122
*I *2100:wd[4] I *L 0.0003 *D srambank_256x4x32_6t122
*I *2099:wd[4] I *L 0.0003 *D srambank_256x4x32_6t122
*I *2109:wd[4] I *L 0.0003 *D srambank_256x4x32_6t122
*I *2108:wd[4] I *L 0.0003 *D srambank_256x4x32_6t122
*I *2102:wd[4] I *L 0.0003 *D srambank_256x4x32_6t122
*I *2576:Y O *L 0.0000 *D AO22x1_ASAP7_75t_L

*CAP
1 *2098:wd[4] 0
2 *2112:wd[4] 0
3 *2106:wd[4] 0
4 *2107:wd[4] 0
5 *2103:wd[4] 0
6 *2110:wd[4] 0
7 *2104:wd[4] 0
8 *2101:wd[4] 0
9 *2097:wd[4] 0
10 *2111:wd[4] 0
11 *2105:wd[4] 0
12 *2100:wd[4] 0
13 *2099:wd[4] 0
14 *2109:wd[4] 0
15 *2108:wd[4] 0
16 *2102:wd[4] 0

*RES
1 *2576:Y *2098:wd[4] 0
2 *2576:Y *2112:wd[4] 0
3 *2576:Y *2106:wd[4] 0
4 *2576:Y *2107:wd[4] 0
5 *2576:Y *2103:wd[4] 0
6 *2576:Y *2110:wd[4] 0
7 *2576:Y *2104:wd[4] 0
8 *2576:Y *2101:wd[4] 0
9 *2576:Y *2097:wd[4] 0
10 *2576:Y *2111:wd[4] 0
11 *2576:Y *2105:wd[4] 0
12 *2576:Y *2100:wd[4] 0
13 *2576:Y *2099:wd[4] 0
14 *2576:Y *2109:wd[4] 0
15 *2576:Y *2108:wd[4] 0
16 *2576:Y *2102:wd[4] 0
*END

*D_NET *280 0.000000

*CONN
*I *2098:wd[5] I *L 0.0003 *D srambank_256x4x32_6t122
*I *2112:wd[5] I *L 0.0003 *D srambank_256x4x32_6t122
*I *2106:wd[5] I *L 0.0003 *D srambank_256x4x32_6t122
*I *2107:wd[5] I *L 0.0003 *D srambank_256x4x32_6t122
*I *2103:wd[5] I *L 0.0003 *D srambank_256x4x32_6t122
*I *2110:wd[5] I *L 0.0003 *D srambank_256x4x32_6t122
*I *2104:wd[5] I *L 0.0003 *D srambank_256x4x32_6t122
*I *2101:wd[5] I *L 0.0003 *D srambank_256x4x32_6t122
*I *2097:wd[5] I *L 0.0003 *D srambank_256x4x32_6t122
*I *2111:wd[5] I *L 0.0003 *D srambank_256x4x32_6t122
*I *2105:wd[5] I *L 0.0003 *D srambank_256x4x32_6t122
*I *2100:wd[5] I *L 0.0003 *D srambank_256x4x32_6t122
*I *2099:wd[5] I *L 0.0003 *D srambank_256x4x32_6t122
*I *2109:wd[5] I *L 0.0003 *D srambank_256x4x32_6t122
*I *2108:wd[5] I *L 0.0003 *D srambank_256x4x32_6t122
*I *2102:wd[5] I *L 0.0003 *D srambank_256x4x32_6t122
*I *2575:Y O *L 0.0000 *D AO22x1_ASAP7_75t_L

*CAP
1 *2098:wd[5] 0
2 *2112:wd[5] 0
3 *2106:wd[5] 0
4 *2107:wd[5] 0
5 *2103:wd[5] 0
6 *2110:wd[5] 0
7 *2104:wd[5] 0
8 *2101:wd[5] 0
9 *2097:wd[5] 0
10 *2111:wd[5] 0
11 *2105:wd[5] 0
12 *2100:wd[5] 0
13 *2099:wd[5] 0
14 *2109:wd[5] 0
15 *2108:wd[5] 0
16 *2102:wd[5] 0

*RES
1 *2575:Y *2098:wd[5] 0
2 *2575:Y *2112:wd[5] 0
3 *2575:Y *2106:wd[5] 0
4 *2575:Y *2107:wd[5] 0
5 *2575:Y *2103:wd[5] 0
6 *2575:Y *2110:wd[5] 0
7 *2575:Y *2104:wd[5] 0
8 *2575:Y *2101:wd[5] 0
9 *2575:Y *2097:wd[5] 0
10 *2575:Y *2111:wd[5] 0
11 *2575:Y *2105:wd[5] 0
12 *2575:Y *2100:wd[5] 0
13 *2575:Y *2099:wd[5] 0
14 *2575:Y *2109:wd[5] 0
15 *2575:Y *2108:wd[5] 0
16 *2575:Y *2102:wd[5] 0
*END

*D_NET *281 0.000000

*CONN
*I *2098:wd[6] I *L 0.0003 *D srambank_256x4x32_6t122
*I *2112:wd[6] I *L 0.0003 *D srambank_256x4x32_6t122
*I *2106:wd[6] I *L 0.0003 *D srambank_256x4x32_6t122
*I *2107:wd[6] I *L 0.0003 *D srambank_256x4x32_6t122
*I *2103:wd[6] I *L 0.0003 *D srambank_256x4x32_6t122
*I *2110:wd[6] I *L 0.0003 *D srambank_256x4x32_6t122
*I *2104:wd[6] I *L 0.0003 *D srambank_256x4x32_6t122
*I *2101:wd[6] I *L 0.0003 *D srambank_256x4x32_6t122
*I *2097:wd[6] I *L 0.0003 *D srambank_256x4x32_6t122
*I *2111:wd[6] I *L 0.0003 *D srambank_256x4x32_6t122
*I *2105:wd[6] I *L 0.0003 *D srambank_256x4x32_6t122
*I *2100:wd[6] I *L 0.0003 *D srambank_256x4x32_6t122
*I *2099:wd[6] I *L 0.0003 *D srambank_256x4x32_6t122
*I *2109:wd[6] I *L 0.0003 *D srambank_256x4x32_6t122
*I *2108:wd[6] I *L 0.0003 *D srambank_256x4x32_6t122
*I *2102:wd[6] I *L 0.0003 *D srambank_256x4x32_6t122
*I *2572:Y O *L 0.0000 *D AO22x1_ASAP7_75t_L

*CAP
1 *2098:wd[6] 0
2 *2112:wd[6] 0
3 *2106:wd[6] 0
4 *2107:wd[6] 0
5 *2103:wd[6] 0
6 *2110:wd[6] 0
7 *2104:wd[6] 0
8 *2101:wd[6] 0
9 *2097:wd[6] 0
10 *2111:wd[6] 0
11 *2105:wd[6] 0
12 *2100:wd[6] 0
13 *2099:wd[6] 0
14 *2109:wd[6] 0
15 *2108:wd[6] 0
16 *2102:wd[6] 0

*RES
1 *2572:Y *2098:wd[6] 0
2 *2572:Y *2112:wd[6] 0
3 *2572:Y *2106:wd[6] 0
4 *2572:Y *2107:wd[6] 0
5 *2572:Y *2103:wd[6] 0
6 *2572:Y *2110:wd[6] 0
7 *2572:Y *2104:wd[6] 0
8 *2572:Y *2101:wd[6] 0
9 *2572:Y *2097:wd[6] 0
10 *2572:Y *2111:wd[6] 0
11 *2572:Y *2105:wd[6] 0
12 *2572:Y *2100:wd[6] 0
13 *2572:Y *2099:wd[6] 0
14 *2572:Y *2109:wd[6] 0
15 *2572:Y *2108:wd[6] 0
16 *2572:Y *2102:wd[6] 0
*END

*D_NET *282 0.000000

*CONN
*I *2098:wd[7] I *L 0.0003 *D srambank_256x4x32_6t122
*I *2112:wd[7] I *L 0.0003 *D srambank_256x4x32_6t122
*I *2106:wd[7] I *L 0.0003 *D srambank_256x4x32_6t122
*I *2107:wd[7] I *L 0.0003 *D srambank_256x4x32_6t122
*I *2103:wd[7] I *L 0.0003 *D srambank_256x4x32_6t122
*I *2110:wd[7] I *L 0.0003 *D srambank_256x4x32_6t122
*I *2104:wd[7] I *L 0.0003 *D srambank_256x4x32_6t122
*I *2101:wd[7] I *L 0.0003 *D srambank_256x4x32_6t122
*I *2097:wd[7] I *L 0.0003 *D srambank_256x4x32_6t122
*I *2111:wd[7] I *L 0.0003 *D srambank_256x4x32_6t122
*I *2105:wd[7] I *L 0.0003 *D srambank_256x4x32_6t122
*I *2100:wd[7] I *L 0.0003 *D srambank_256x4x32_6t122
*I *2099:wd[7] I *L 0.0003 *D srambank_256x4x32_6t122
*I *2109:wd[7] I *L 0.0003 *D srambank_256x4x32_6t122
*I *2108:wd[7] I *L 0.0003 *D srambank_256x4x32_6t122
*I *2102:wd[7] I *L 0.0003 *D srambank_256x4x32_6t122
*I *2571:Y O *L 0.0000 *D AO22x1_ASAP7_75t_L

*CAP
1 *2098:wd[7] 0
2 *2112:wd[7] 0
3 *2106:wd[7] 0
4 *2107:wd[7] 0
5 *2103:wd[7] 0
6 *2110:wd[7] 0
7 *2104:wd[7] 0
8 *2101:wd[7] 0
9 *2097:wd[7] 0
10 *2111:wd[7] 0
11 *2105:wd[7] 0
12 *2100:wd[7] 0
13 *2099:wd[7] 0
14 *2109:wd[7] 0
15 *2108:wd[7] 0
16 *2102:wd[7] 0

*RES
1 *2571:Y *2098:wd[7] 0
2 *2571:Y *2112:wd[7] 0
3 *2571:Y *2106:wd[7] 0
4 *2571:Y *2107:wd[7] 0
5 *2571:Y *2103:wd[7] 0
6 *2571:Y *2110:wd[7] 0
7 *2571:Y *2104:wd[7] 0
8 *2571:Y *2101:wd[7] 0
9 *2571:Y *2097:wd[7] 0
10 *2571:Y *2111:wd[7] 0
11 *2571:Y *2105:wd[7] 0
12 *2571:Y *2100:wd[7] 0
13 *2571:Y *2099:wd[7] 0
14 *2571:Y *2109:wd[7] 0
15 *2571:Y *2108:wd[7] 0
16 *2571:Y *2102:wd[7] 0
*END

*D_NET *283 0.000000

*CONN
*I *2098:wd[8] I *L 0.0003 *D srambank_256x4x32_6t122
*I *2112:wd[8] I *L 0.0003 *D srambank_256x4x32_6t122
*I *2106:wd[8] I *L 0.0003 *D srambank_256x4x32_6t122
*I *2107:wd[8] I *L 0.0003 *D srambank_256x4x32_6t122
*I *2103:wd[8] I *L 0.0003 *D srambank_256x4x32_6t122
*I *2110:wd[8] I *L 0.0003 *D srambank_256x4x32_6t122
*I *2104:wd[8] I *L 0.0003 *D srambank_256x4x32_6t122
*I *2101:wd[8] I *L 0.0003 *D srambank_256x4x32_6t122
*I *2097:wd[8] I *L 0.0003 *D srambank_256x4x32_6t122
*I *2111:wd[8] I *L 0.0003 *D srambank_256x4x32_6t122
*I *2105:wd[8] I *L 0.0003 *D srambank_256x4x32_6t122
*I *2100:wd[8] I *L 0.0003 *D srambank_256x4x32_6t122
*I *2099:wd[8] I *L 0.0003 *D srambank_256x4x32_6t122
*I *2109:wd[8] I *L 0.0003 *D srambank_256x4x32_6t122
*I *2108:wd[8] I *L 0.0003 *D srambank_256x4x32_6t122
*I *2102:wd[8] I *L 0.0003 *D srambank_256x4x32_6t122
*I *2585:Y O *L 0.0000 *D AO22x1_ASAP7_75t_L

*CAP
1 *2098:wd[8] 0
2 *2112:wd[8] 0
3 *2106:wd[8] 0
4 *2107:wd[8] 0
5 *2103:wd[8] 0
6 *2110:wd[8] 0
7 *2104:wd[8] 0
8 *2101:wd[8] 0
9 *2097:wd[8] 0
10 *2111:wd[8] 0
11 *2105:wd[8] 0
12 *2100:wd[8] 0
13 *2099:wd[8] 0
14 *2109:wd[8] 0
15 *2108:wd[8] 0
16 *2102:wd[8] 0

*RES
1 *2585:Y *2098:wd[8] 0
2 *2585:Y *2112:wd[8] 0
3 *2585:Y *2106:wd[8] 0
4 *2585:Y *2107:wd[8] 0
5 *2585:Y *2103:wd[8] 0
6 *2585:Y *2110:wd[8] 0
7 *2585:Y *2104:wd[8] 0
8 *2585:Y *2101:wd[8] 0
9 *2585:Y *2097:wd[8] 0
10 *2585:Y *2111:wd[8] 0
11 *2585:Y *2105:wd[8] 0
12 *2585:Y *2100:wd[8] 0
13 *2585:Y *2099:wd[8] 0
14 *2585:Y *2109:wd[8] 0
15 *2585:Y *2108:wd[8] 0
16 *2585:Y *2102:wd[8] 0
*END

*D_NET *284 0.000000

*CONN
*I *2098:wd[9] I *L 0.0003 *D srambank_256x4x32_6t122
*I *2112:wd[9] I *L 0.0003 *D srambank_256x4x32_6t122
*I *2106:wd[9] I *L 0.0003 *D srambank_256x4x32_6t122
*I *2107:wd[9] I *L 0.0003 *D srambank_256x4x32_6t122
*I *2103:wd[9] I *L 0.0003 *D srambank_256x4x32_6t122
*I *2110:wd[9] I *L 0.0003 *D srambank_256x4x32_6t122
*I *2104:wd[9] I *L 0.0003 *D srambank_256x4x32_6t122
*I *2101:wd[9] I *L 0.0003 *D srambank_256x4x32_6t122
*I *2097:wd[9] I *L 0.0003 *D srambank_256x4x32_6t122
*I *2111:wd[9] I *L 0.0003 *D srambank_256x4x32_6t122
*I *2105:wd[9] I *L 0.0003 *D srambank_256x4x32_6t122
*I *2100:wd[9] I *L 0.0003 *D srambank_256x4x32_6t122
*I *2099:wd[9] I *L 0.0003 *D srambank_256x4x32_6t122
*I *2109:wd[9] I *L 0.0003 *D srambank_256x4x32_6t122
*I *2108:wd[9] I *L 0.0003 *D srambank_256x4x32_6t122
*I *2102:wd[9] I *L 0.0003 *D srambank_256x4x32_6t122
*I *2568:Y O *L 0.0000 *D AO22x1_ASAP7_75t_L

*CAP
1 *2098:wd[9] 0
2 *2112:wd[9] 0
3 *2106:wd[9] 0
4 *2107:wd[9] 0
5 *2103:wd[9] 0
6 *2110:wd[9] 0
7 *2104:wd[9] 0
8 *2101:wd[9] 0
9 *2097:wd[9] 0
10 *2111:wd[9] 0
11 *2105:wd[9] 0
12 *2100:wd[9] 0
13 *2099:wd[9] 0
14 *2109:wd[9] 0
15 *2108:wd[9] 0
16 *2102:wd[9] 0

*RES
1 *2568:Y *2098:wd[9] 0
2 *2568:Y *2112:wd[9] 0
3 *2568:Y *2106:wd[9] 0
4 *2568:Y *2107:wd[9] 0
5 *2568:Y *2103:wd[9] 0
6 *2568:Y *2110:wd[9] 0
7 *2568:Y *2104:wd[9] 0
8 *2568:Y *2101:wd[9] 0
9 *2568:Y *2097:wd[9] 0
10 *2568:Y *2111:wd[9] 0
11 *2568:Y *2105:wd[9] 0
12 *2568:Y *2100:wd[9] 0
13 *2568:Y *2099:wd[9] 0
14 *2568:Y *2109:wd[9] 0
15 *2568:Y *2108:wd[9] 0
16 *2568:Y *2102:wd[9] 0
*END

*D_NET *285 0.000000

*CONN
*I *2098:wd[10] I *L 0.0003 *D srambank_256x4x32_6t122
*I *2112:wd[10] I *L 0.0003 *D srambank_256x4x32_6t122
*I *2106:wd[10] I *L 0.0003 *D srambank_256x4x32_6t122
*I *2107:wd[10] I *L 0.0003 *D srambank_256x4x32_6t122
*I *2103:wd[10] I *L 0.0003 *D srambank_256x4x32_6t122
*I *2110:wd[10] I *L 0.0003 *D srambank_256x4x32_6t122
*I *2104:wd[10] I *L 0.0003 *D srambank_256x4x32_6t122
*I *2101:wd[10] I *L 0.0003 *D srambank_256x4x32_6t122
*I *2097:wd[10] I *L 0.0003 *D srambank_256x4x32_6t122
*I *2111:wd[10] I *L 0.0003 *D srambank_256x4x32_6t122
*I *2105:wd[10] I *L 0.0003 *D srambank_256x4x32_6t122
*I *2100:wd[10] I *L 0.0003 *D srambank_256x4x32_6t122
*I *2099:wd[10] I *L 0.0003 *D srambank_256x4x32_6t122
*I *2109:wd[10] I *L 0.0003 *D srambank_256x4x32_6t122
*I *2108:wd[10] I *L 0.0003 *D srambank_256x4x32_6t122
*I *2102:wd[10] I *L 0.0003 *D srambank_256x4x32_6t122
*I *2567:Y O *L 0.0000 *D AO22x1_ASAP7_75t_L

*CAP
1 *2098:wd[10] 0
2 *2112:wd[10] 0
3 *2106:wd[10] 0
4 *2107:wd[10] 0
5 *2103:wd[10] 0
6 *2110:wd[10] 0
7 *2104:wd[10] 0
8 *2101:wd[10] 0
9 *2097:wd[10] 0
10 *2111:wd[10] 0
11 *2105:wd[10] 0
12 *2100:wd[10] 0
13 *2099:wd[10] 0
14 *2109:wd[10] 0
15 *2108:wd[10] 0
16 *2102:wd[10] 0

*RES
1 *2567:Y *2098:wd[10] 0
2 *2567:Y *2112:wd[10] 0
3 *2567:Y *2106:wd[10] 0
4 *2567:Y *2107:wd[10] 0
5 *2567:Y *2103:wd[10] 0
6 *2567:Y *2110:wd[10] 0
7 *2567:Y *2104:wd[10] 0
8 *2567:Y *2101:wd[10] 0
9 *2567:Y *2097:wd[10] 0
10 *2567:Y *2111:wd[10] 0
11 *2567:Y *2105:wd[10] 0
12 *2567:Y *2100:wd[10] 0
13 *2567:Y *2099:wd[10] 0
14 *2567:Y *2109:wd[10] 0
15 *2567:Y *2108:wd[10] 0
16 *2567:Y *2102:wd[10] 0
*END

*D_NET *286 0.000000

*CONN
*I *2098:wd[11] I *L 0.0003 *D srambank_256x4x32_6t122
*I *2112:wd[11] I *L 0.0003 *D srambank_256x4x32_6t122
*I *2106:wd[11] I *L 0.0003 *D srambank_256x4x32_6t122
*I *2107:wd[11] I *L 0.0003 *D srambank_256x4x32_6t122
*I *2103:wd[11] I *L 0.0003 *D srambank_256x4x32_6t122
*I *2110:wd[11] I *L 0.0003 *D srambank_256x4x32_6t122
*I *2104:wd[11] I *L 0.0003 *D srambank_256x4x32_6t122
*I *2101:wd[11] I *L 0.0003 *D srambank_256x4x32_6t122
*I *2097:wd[11] I *L 0.0003 *D srambank_256x4x32_6t122
*I *2111:wd[11] I *L 0.0003 *D srambank_256x4x32_6t122
*I *2105:wd[11] I *L 0.0003 *D srambank_256x4x32_6t122
*I *2100:wd[11] I *L 0.0003 *D srambank_256x4x32_6t122
*I *2099:wd[11] I *L 0.0003 *D srambank_256x4x32_6t122
*I *2109:wd[11] I *L 0.0003 *D srambank_256x4x32_6t122
*I *2108:wd[11] I *L 0.0003 *D srambank_256x4x32_6t122
*I *2102:wd[11] I *L 0.0003 *D srambank_256x4x32_6t122
*I *2566:Y O *L 0.0000 *D AO22x1_ASAP7_75t_L

*CAP
1 *2098:wd[11] 0
2 *2112:wd[11] 0
3 *2106:wd[11] 0
4 *2107:wd[11] 0
5 *2103:wd[11] 0
6 *2110:wd[11] 0
7 *2104:wd[11] 0
8 *2101:wd[11] 0
9 *2097:wd[11] 0
10 *2111:wd[11] 0
11 *2105:wd[11] 0
12 *2100:wd[11] 0
13 *2099:wd[11] 0
14 *2109:wd[11] 0
15 *2108:wd[11] 0
16 *2102:wd[11] 0

*RES
1 *2566:Y *2098:wd[11] 0
2 *2566:Y *2112:wd[11] 0
3 *2566:Y *2106:wd[11] 0
4 *2566:Y *2107:wd[11] 0
5 *2566:Y *2103:wd[11] 0
6 *2566:Y *2110:wd[11] 0
7 *2566:Y *2104:wd[11] 0
8 *2566:Y *2101:wd[11] 0
9 *2566:Y *2097:wd[11] 0
10 *2566:Y *2111:wd[11] 0
11 *2566:Y *2105:wd[11] 0
12 *2566:Y *2100:wd[11] 0
13 *2566:Y *2099:wd[11] 0
14 *2566:Y *2109:wd[11] 0
15 *2566:Y *2108:wd[11] 0
16 *2566:Y *2102:wd[11] 0
*END

*D_NET *287 0.000000

*CONN
*I *2098:wd[12] I *L 0.0003 *D srambank_256x4x32_6t122
*I *2112:wd[12] I *L 0.0003 *D srambank_256x4x32_6t122
*I *2106:wd[12] I *L 0.0003 *D srambank_256x4x32_6t122
*I *2107:wd[12] I *L 0.0003 *D srambank_256x4x32_6t122
*I *2103:wd[12] I *L 0.0003 *D srambank_256x4x32_6t122
*I *2110:wd[12] I *L 0.0003 *D srambank_256x4x32_6t122
*I *2104:wd[12] I *L 0.0003 *D srambank_256x4x32_6t122
*I *2101:wd[12] I *L 0.0003 *D srambank_256x4x32_6t122
*I *2097:wd[12] I *L 0.0003 *D srambank_256x4x32_6t122
*I *2111:wd[12] I *L 0.0003 *D srambank_256x4x32_6t122
*I *2105:wd[12] I *L 0.0003 *D srambank_256x4x32_6t122
*I *2100:wd[12] I *L 0.0003 *D srambank_256x4x32_6t122
*I *2099:wd[12] I *L 0.0003 *D srambank_256x4x32_6t122
*I *2109:wd[12] I *L 0.0003 *D srambank_256x4x32_6t122
*I *2108:wd[12] I *L 0.0003 *D srambank_256x4x32_6t122
*I *2102:wd[12] I *L 0.0003 *D srambank_256x4x32_6t122
*I *2563:Y O *L 0.0000 *D AO22x1_ASAP7_75t_L

*CAP
1 *2098:wd[12] 0
2 *2112:wd[12] 0
3 *2106:wd[12] 0
4 *2107:wd[12] 0
5 *2103:wd[12] 0
6 *2110:wd[12] 0
7 *2104:wd[12] 0
8 *2101:wd[12] 0
9 *2097:wd[12] 0
10 *2111:wd[12] 0
11 *2105:wd[12] 0
12 *2100:wd[12] 0
13 *2099:wd[12] 0
14 *2109:wd[12] 0
15 *2108:wd[12] 0
16 *2102:wd[12] 0

*RES
1 *2563:Y *2098:wd[12] 0
2 *2563:Y *2112:wd[12] 0
3 *2563:Y *2106:wd[12] 0
4 *2563:Y *2107:wd[12] 0
5 *2563:Y *2103:wd[12] 0
6 *2563:Y *2110:wd[12] 0
7 *2563:Y *2104:wd[12] 0
8 *2563:Y *2101:wd[12] 0
9 *2563:Y *2097:wd[12] 0
10 *2563:Y *2111:wd[12] 0
11 *2563:Y *2105:wd[12] 0
12 *2563:Y *2100:wd[12] 0
13 *2563:Y *2099:wd[12] 0
14 *2563:Y *2109:wd[12] 0
15 *2563:Y *2108:wd[12] 0
16 *2563:Y *2102:wd[12] 0
*END

*D_NET *288 0.000000

*CONN
*I *2098:wd[13] I *L 0.0003 *D srambank_256x4x32_6t122
*I *2112:wd[13] I *L 0.0003 *D srambank_256x4x32_6t122
*I *2106:wd[13] I *L 0.0003 *D srambank_256x4x32_6t122
*I *2107:wd[13] I *L 0.0003 *D srambank_256x4x32_6t122
*I *2103:wd[13] I *L 0.0003 *D srambank_256x4x32_6t122
*I *2110:wd[13] I *L 0.0003 *D srambank_256x4x32_6t122
*I *2104:wd[13] I *L 0.0003 *D srambank_256x4x32_6t122
*I *2101:wd[13] I *L 0.0003 *D srambank_256x4x32_6t122
*I *2097:wd[13] I *L 0.0003 *D srambank_256x4x32_6t122
*I *2111:wd[13] I *L 0.0003 *D srambank_256x4x32_6t122
*I *2105:wd[13] I *L 0.0003 *D srambank_256x4x32_6t122
*I *2100:wd[13] I *L 0.0003 *D srambank_256x4x32_6t122
*I *2099:wd[13] I *L 0.0003 *D srambank_256x4x32_6t122
*I *2109:wd[13] I *L 0.0003 *D srambank_256x4x32_6t122
*I *2108:wd[13] I *L 0.0003 *D srambank_256x4x32_6t122
*I *2102:wd[13] I *L 0.0003 *D srambank_256x4x32_6t122
*I *2562:Y O *L 0.0000 *D AO22x1_ASAP7_75t_L

*CAP
1 *2098:wd[13] 0
2 *2112:wd[13] 0
3 *2106:wd[13] 0
4 *2107:wd[13] 0
5 *2103:wd[13] 0
6 *2110:wd[13] 0
7 *2104:wd[13] 0
8 *2101:wd[13] 0
9 *2097:wd[13] 0
10 *2111:wd[13] 0
11 *2105:wd[13] 0
12 *2100:wd[13] 0
13 *2099:wd[13] 0
14 *2109:wd[13] 0
15 *2108:wd[13] 0
16 *2102:wd[13] 0

*RES
1 *2562:Y *2098:wd[13] 0
2 *2562:Y *2112:wd[13] 0
3 *2562:Y *2106:wd[13] 0
4 *2562:Y *2107:wd[13] 0
5 *2562:Y *2103:wd[13] 0
6 *2562:Y *2110:wd[13] 0
7 *2562:Y *2104:wd[13] 0
8 *2562:Y *2101:wd[13] 0
9 *2562:Y *2097:wd[13] 0
10 *2562:Y *2111:wd[13] 0
11 *2562:Y *2105:wd[13] 0
12 *2562:Y *2100:wd[13] 0
13 *2562:Y *2099:wd[13] 0
14 *2562:Y *2109:wd[13] 0
15 *2562:Y *2108:wd[13] 0
16 *2562:Y *2102:wd[13] 0
*END

*D_NET *289 0.000000

*CONN
*I *2098:wd[14] I *L 0.0003 *D srambank_256x4x32_6t122
*I *2112:wd[14] I *L 0.0003 *D srambank_256x4x32_6t122
*I *2106:wd[14] I *L 0.0003 *D srambank_256x4x32_6t122
*I *2107:wd[14] I *L 0.0003 *D srambank_256x4x32_6t122
*I *2103:wd[14] I *L 0.0003 *D srambank_256x4x32_6t122
*I *2110:wd[14] I *L 0.0003 *D srambank_256x4x32_6t122
*I *2104:wd[14] I *L 0.0003 *D srambank_256x4x32_6t122
*I *2101:wd[14] I *L 0.0003 *D srambank_256x4x32_6t122
*I *2097:wd[14] I *L 0.0003 *D srambank_256x4x32_6t122
*I *2111:wd[14] I *L 0.0003 *D srambank_256x4x32_6t122
*I *2105:wd[14] I *L 0.0003 *D srambank_256x4x32_6t122
*I *2100:wd[14] I *L 0.0003 *D srambank_256x4x32_6t122
*I *2099:wd[14] I *L 0.0003 *D srambank_256x4x32_6t122
*I *2109:wd[14] I *L 0.0003 *D srambank_256x4x32_6t122
*I *2108:wd[14] I *L 0.0003 *D srambank_256x4x32_6t122
*I *2102:wd[14] I *L 0.0003 *D srambank_256x4x32_6t122
*I *2561:Y O *L 0.0000 *D AO22x1_ASAP7_75t_L

*CAP
1 *2098:wd[14] 0
2 *2112:wd[14] 0
3 *2106:wd[14] 0
4 *2107:wd[14] 0
5 *2103:wd[14] 0
6 *2110:wd[14] 0
7 *2104:wd[14] 0
8 *2101:wd[14] 0
9 *2097:wd[14] 0
10 *2111:wd[14] 0
11 *2105:wd[14] 0
12 *2100:wd[14] 0
13 *2099:wd[14] 0
14 *2109:wd[14] 0
15 *2108:wd[14] 0
16 *2102:wd[14] 0

*RES
1 *2561:Y *2098:wd[14] 0
2 *2561:Y *2112:wd[14] 0
3 *2561:Y *2106:wd[14] 0
4 *2561:Y *2107:wd[14] 0
5 *2561:Y *2103:wd[14] 0
6 *2561:Y *2110:wd[14] 0
7 *2561:Y *2104:wd[14] 0
8 *2561:Y *2101:wd[14] 0
9 *2561:Y *2097:wd[14] 0
10 *2561:Y *2111:wd[14] 0
11 *2561:Y *2105:wd[14] 0
12 *2561:Y *2100:wd[14] 0
13 *2561:Y *2099:wd[14] 0
14 *2561:Y *2109:wd[14] 0
15 *2561:Y *2108:wd[14] 0
16 *2561:Y *2102:wd[14] 0
*END

*D_NET *290 0.000000

*CONN
*I *2098:wd[15] I *L 0.0003 *D srambank_256x4x32_6t122
*I *2112:wd[15] I *L 0.0003 *D srambank_256x4x32_6t122
*I *2106:wd[15] I *L 0.0003 *D srambank_256x4x32_6t122
*I *2107:wd[15] I *L 0.0003 *D srambank_256x4x32_6t122
*I *2103:wd[15] I *L 0.0003 *D srambank_256x4x32_6t122
*I *2110:wd[15] I *L 0.0003 *D srambank_256x4x32_6t122
*I *2104:wd[15] I *L 0.0003 *D srambank_256x4x32_6t122
*I *2101:wd[15] I *L 0.0003 *D srambank_256x4x32_6t122
*I *2097:wd[15] I *L 0.0003 *D srambank_256x4x32_6t122
*I *2111:wd[15] I *L 0.0003 *D srambank_256x4x32_6t122
*I *2105:wd[15] I *L 0.0003 *D srambank_256x4x32_6t122
*I *2100:wd[15] I *L 0.0003 *D srambank_256x4x32_6t122
*I *2099:wd[15] I *L 0.0003 *D srambank_256x4x32_6t122
*I *2109:wd[15] I *L 0.0003 *D srambank_256x4x32_6t122
*I *2108:wd[15] I *L 0.0003 *D srambank_256x4x32_6t122
*I *2102:wd[15] I *L 0.0003 *D srambank_256x4x32_6t122
*I *2559:Y O *L 0.0000 *D AO22x1_ASAP7_75t_L

*CAP
1 *2098:wd[15] 0
2 *2112:wd[15] 0
3 *2106:wd[15] 0
4 *2107:wd[15] 0
5 *2103:wd[15] 0
6 *2110:wd[15] 0
7 *2104:wd[15] 0
8 *2101:wd[15] 0
9 *2097:wd[15] 0
10 *2111:wd[15] 0
11 *2105:wd[15] 0
12 *2100:wd[15] 0
13 *2099:wd[15] 0
14 *2109:wd[15] 0
15 *2108:wd[15] 0
16 *2102:wd[15] 0

*RES
1 *2559:Y *2098:wd[15] 0
2 *2559:Y *2112:wd[15] 0
3 *2559:Y *2106:wd[15] 0
4 *2559:Y *2107:wd[15] 0
5 *2559:Y *2103:wd[15] 0
6 *2559:Y *2110:wd[15] 0
7 *2559:Y *2104:wd[15] 0
8 *2559:Y *2101:wd[15] 0
9 *2559:Y *2097:wd[15] 0
10 *2559:Y *2111:wd[15] 0
11 *2559:Y *2105:wd[15] 0
12 *2559:Y *2100:wd[15] 0
13 *2559:Y *2099:wd[15] 0
14 *2559:Y *2109:wd[15] 0
15 *2559:Y *2108:wd[15] 0
16 *2559:Y *2102:wd[15] 0
*END

*D_NET *291 0.000000

*CONN
*I *2098:wd[16] I *L 0.0003 *D srambank_256x4x32_6t122
*I *2112:wd[16] I *L 0.0003 *D srambank_256x4x32_6t122
*I *2106:wd[16] I *L 0.0003 *D srambank_256x4x32_6t122
*I *2107:wd[16] I *L 0.0003 *D srambank_256x4x32_6t122
*I *2103:wd[16] I *L 0.0003 *D srambank_256x4x32_6t122
*I *2110:wd[16] I *L 0.0003 *D srambank_256x4x32_6t122
*I *2104:wd[16] I *L 0.0003 *D srambank_256x4x32_6t122
*I *2101:wd[16] I *L 0.0003 *D srambank_256x4x32_6t122
*I *2097:wd[16] I *L 0.0003 *D srambank_256x4x32_6t122
*I *2111:wd[16] I *L 0.0003 *D srambank_256x4x32_6t122
*I *2105:wd[16] I *L 0.0003 *D srambank_256x4x32_6t122
*I *2100:wd[16] I *L 0.0003 *D srambank_256x4x32_6t122
*I *2099:wd[16] I *L 0.0003 *D srambank_256x4x32_6t122
*I *2109:wd[16] I *L 0.0003 *D srambank_256x4x32_6t122
*I *2108:wd[16] I *L 0.0003 *D srambank_256x4x32_6t122
*I *2102:wd[16] I *L 0.0003 *D srambank_256x4x32_6t122
*I *2558:Y O *L 0.0000 *D AO22x1_ASAP7_75t_L

*CAP
1 *2098:wd[16] 0
2 *2112:wd[16] 0
3 *2106:wd[16] 0
4 *2107:wd[16] 0
5 *2103:wd[16] 0
6 *2110:wd[16] 0
7 *2104:wd[16] 0
8 *2101:wd[16] 0
9 *2097:wd[16] 0
10 *2111:wd[16] 0
11 *2105:wd[16] 0
12 *2100:wd[16] 0
13 *2099:wd[16] 0
14 *2109:wd[16] 0
15 *2108:wd[16] 0
16 *2102:wd[16] 0

*RES
1 *2558:Y *2098:wd[16] 0
2 *2558:Y *2112:wd[16] 0
3 *2558:Y *2106:wd[16] 0
4 *2558:Y *2107:wd[16] 0
5 *2558:Y *2103:wd[16] 0
6 *2558:Y *2110:wd[16] 0
7 *2558:Y *2104:wd[16] 0
8 *2558:Y *2101:wd[16] 0
9 *2558:Y *2097:wd[16] 0
10 *2558:Y *2111:wd[16] 0
11 *2558:Y *2105:wd[16] 0
12 *2558:Y *2100:wd[16] 0
13 *2558:Y *2099:wd[16] 0
14 *2558:Y *2109:wd[16] 0
15 *2558:Y *2108:wd[16] 0
16 *2558:Y *2102:wd[16] 0
*END

*D_NET *292 0.000000

*CONN
*I *2098:wd[17] I *L 0.0003 *D srambank_256x4x32_6t122
*I *2112:wd[17] I *L 0.0003 *D srambank_256x4x32_6t122
*I *2106:wd[17] I *L 0.0003 *D srambank_256x4x32_6t122
*I *2107:wd[17] I *L 0.0003 *D srambank_256x4x32_6t122
*I *2103:wd[17] I *L 0.0003 *D srambank_256x4x32_6t122
*I *2110:wd[17] I *L 0.0003 *D srambank_256x4x32_6t122
*I *2104:wd[17] I *L 0.0003 *D srambank_256x4x32_6t122
*I *2101:wd[17] I *L 0.0003 *D srambank_256x4x32_6t122
*I *2097:wd[17] I *L 0.0003 *D srambank_256x4x32_6t122
*I *2111:wd[17] I *L 0.0003 *D srambank_256x4x32_6t122
*I *2105:wd[17] I *L 0.0003 *D srambank_256x4x32_6t122
*I *2100:wd[17] I *L 0.0003 *D srambank_256x4x32_6t122
*I *2099:wd[17] I *L 0.0003 *D srambank_256x4x32_6t122
*I *2109:wd[17] I *L 0.0003 *D srambank_256x4x32_6t122
*I *2108:wd[17] I *L 0.0003 *D srambank_256x4x32_6t122
*I *2102:wd[17] I *L 0.0003 *D srambank_256x4x32_6t122
*I *2557:Y O *L 0.0000 *D AO22x1_ASAP7_75t_L

*CAP
1 *2098:wd[17] 0
2 *2112:wd[17] 0
3 *2106:wd[17] 0
4 *2107:wd[17] 0
5 *2103:wd[17] 0
6 *2110:wd[17] 0
7 *2104:wd[17] 0
8 *2101:wd[17] 0
9 *2097:wd[17] 0
10 *2111:wd[17] 0
11 *2105:wd[17] 0
12 *2100:wd[17] 0
13 *2099:wd[17] 0
14 *2109:wd[17] 0
15 *2108:wd[17] 0
16 *2102:wd[17] 0

*RES
1 *2557:Y *2098:wd[17] 0
2 *2557:Y *2112:wd[17] 0
3 *2557:Y *2106:wd[17] 0
4 *2557:Y *2107:wd[17] 0
5 *2557:Y *2103:wd[17] 0
6 *2557:Y *2110:wd[17] 0
7 *2557:Y *2104:wd[17] 0
8 *2557:Y *2101:wd[17] 0
9 *2557:Y *2097:wd[17] 0
10 *2557:Y *2111:wd[17] 0
11 *2557:Y *2105:wd[17] 0
12 *2557:Y *2100:wd[17] 0
13 *2557:Y *2099:wd[17] 0
14 *2557:Y *2109:wd[17] 0
15 *2557:Y *2108:wd[17] 0
16 *2557:Y *2102:wd[17] 0
*END

*D_NET *293 0.000000

*CONN
*I *2098:wd[18] I *L 0.0003 *D srambank_256x4x32_6t122
*I *2112:wd[18] I *L 0.0003 *D srambank_256x4x32_6t122
*I *2106:wd[18] I *L 0.0003 *D srambank_256x4x32_6t122
*I *2107:wd[18] I *L 0.0003 *D srambank_256x4x32_6t122
*I *2103:wd[18] I *L 0.0003 *D srambank_256x4x32_6t122
*I *2110:wd[18] I *L 0.0003 *D srambank_256x4x32_6t122
*I *2104:wd[18] I *L 0.0003 *D srambank_256x4x32_6t122
*I *2101:wd[18] I *L 0.0003 *D srambank_256x4x32_6t122
*I *2097:wd[18] I *L 0.0003 *D srambank_256x4x32_6t122
*I *2111:wd[18] I *L 0.0003 *D srambank_256x4x32_6t122
*I *2105:wd[18] I *L 0.0003 *D srambank_256x4x32_6t122
*I *2100:wd[18] I *L 0.0003 *D srambank_256x4x32_6t122
*I *2099:wd[18] I *L 0.0003 *D srambank_256x4x32_6t122
*I *2109:wd[18] I *L 0.0003 *D srambank_256x4x32_6t122
*I *2108:wd[18] I *L 0.0003 *D srambank_256x4x32_6t122
*I *2102:wd[18] I *L 0.0003 *D srambank_256x4x32_6t122
*I *2570:Y O *L 0.0000 *D AO22x1_ASAP7_75t_L

*CAP
1 *2098:wd[18] 0
2 *2112:wd[18] 0
3 *2106:wd[18] 0
4 *2107:wd[18] 0
5 *2103:wd[18] 0
6 *2110:wd[18] 0
7 *2104:wd[18] 0
8 *2101:wd[18] 0
9 *2097:wd[18] 0
10 *2111:wd[18] 0
11 *2105:wd[18] 0
12 *2100:wd[18] 0
13 *2099:wd[18] 0
14 *2109:wd[18] 0
15 *2108:wd[18] 0
16 *2102:wd[18] 0

*RES
1 *2570:Y *2098:wd[18] 0
2 *2570:Y *2112:wd[18] 0
3 *2570:Y *2106:wd[18] 0
4 *2570:Y *2107:wd[18] 0
5 *2570:Y *2103:wd[18] 0
6 *2570:Y *2110:wd[18] 0
7 *2570:Y *2104:wd[18] 0
8 *2570:Y *2101:wd[18] 0
9 *2570:Y *2097:wd[18] 0
10 *2570:Y *2111:wd[18] 0
11 *2570:Y *2105:wd[18] 0
12 *2570:Y *2100:wd[18] 0
13 *2570:Y *2099:wd[18] 0
14 *2570:Y *2109:wd[18] 0
15 *2570:Y *2108:wd[18] 0
16 *2570:Y *2102:wd[18] 0
*END

*D_NET *294 0.000000

*CONN
*I *2098:wd[19] I *L 0.0003 *D srambank_256x4x32_6t122
*I *2112:wd[19] I *L 0.0003 *D srambank_256x4x32_6t122
*I *2106:wd[19] I *L 0.0003 *D srambank_256x4x32_6t122
*I *2107:wd[19] I *L 0.0003 *D srambank_256x4x32_6t122
*I *2103:wd[19] I *L 0.0003 *D srambank_256x4x32_6t122
*I *2110:wd[19] I *L 0.0003 *D srambank_256x4x32_6t122
*I *2104:wd[19] I *L 0.0003 *D srambank_256x4x32_6t122
*I *2101:wd[19] I *L 0.0003 *D srambank_256x4x32_6t122
*I *2097:wd[19] I *L 0.0003 *D srambank_256x4x32_6t122
*I *2111:wd[19] I *L 0.0003 *D srambank_256x4x32_6t122
*I *2105:wd[19] I *L 0.0003 *D srambank_256x4x32_6t122
*I *2100:wd[19] I *L 0.0003 *D srambank_256x4x32_6t122
*I *2099:wd[19] I *L 0.0003 *D srambank_256x4x32_6t122
*I *2109:wd[19] I *L 0.0003 *D srambank_256x4x32_6t122
*I *2108:wd[19] I *L 0.0003 *D srambank_256x4x32_6t122
*I *2102:wd[19] I *L 0.0003 *D srambank_256x4x32_6t122
*I *2584:Y O *L 0.0000 *D AO22x1_ASAP7_75t_L

*CAP
1 *2098:wd[19] 0
2 *2112:wd[19] 0
3 *2106:wd[19] 0
4 *2107:wd[19] 0
5 *2103:wd[19] 0
6 *2110:wd[19] 0
7 *2104:wd[19] 0
8 *2101:wd[19] 0
9 *2097:wd[19] 0
10 *2111:wd[19] 0
11 *2105:wd[19] 0
12 *2100:wd[19] 0
13 *2099:wd[19] 0
14 *2109:wd[19] 0
15 *2108:wd[19] 0
16 *2102:wd[19] 0

*RES
1 *2584:Y *2098:wd[19] 0
2 *2584:Y *2112:wd[19] 0
3 *2584:Y *2106:wd[19] 0
4 *2584:Y *2107:wd[19] 0
5 *2584:Y *2103:wd[19] 0
6 *2584:Y *2110:wd[19] 0
7 *2584:Y *2104:wd[19] 0
8 *2584:Y *2101:wd[19] 0
9 *2584:Y *2097:wd[19] 0
10 *2584:Y *2111:wd[19] 0
11 *2584:Y *2105:wd[19] 0
12 *2584:Y *2100:wd[19] 0
13 *2584:Y *2099:wd[19] 0
14 *2584:Y *2109:wd[19] 0
15 *2584:Y *2108:wd[19] 0
16 *2584:Y *2102:wd[19] 0
*END

*D_NET *295 0.000000

*CONN
*I *2098:wd[20] I *L 0.0003 *D srambank_256x4x32_6t122
*I *2112:wd[20] I *L 0.0003 *D srambank_256x4x32_6t122
*I *2106:wd[20] I *L 0.0003 *D srambank_256x4x32_6t122
*I *2107:wd[20] I *L 0.0003 *D srambank_256x4x32_6t122
*I *2103:wd[20] I *L 0.0003 *D srambank_256x4x32_6t122
*I *2110:wd[20] I *L 0.0003 *D srambank_256x4x32_6t122
*I *2104:wd[20] I *L 0.0003 *D srambank_256x4x32_6t122
*I *2101:wd[20] I *L 0.0003 *D srambank_256x4x32_6t122
*I *2097:wd[20] I *L 0.0003 *D srambank_256x4x32_6t122
*I *2111:wd[20] I *L 0.0003 *D srambank_256x4x32_6t122
*I *2105:wd[20] I *L 0.0003 *D srambank_256x4x32_6t122
*I *2100:wd[20] I *L 0.0003 *D srambank_256x4x32_6t122
*I *2099:wd[20] I *L 0.0003 *D srambank_256x4x32_6t122
*I *2109:wd[20] I *L 0.0003 *D srambank_256x4x32_6t122
*I *2108:wd[20] I *L 0.0003 *D srambank_256x4x32_6t122
*I *2102:wd[20] I *L 0.0003 *D srambank_256x4x32_6t122
*I *2583:Y O *L 0.0000 *D AO22x1_ASAP7_75t_L

*CAP
1 *2098:wd[20] 0
2 *2112:wd[20] 0
3 *2106:wd[20] 0
4 *2107:wd[20] 0
5 *2103:wd[20] 0
6 *2110:wd[20] 0
7 *2104:wd[20] 0
8 *2101:wd[20] 0
9 *2097:wd[20] 0
10 *2111:wd[20] 0
11 *2105:wd[20] 0
12 *2100:wd[20] 0
13 *2099:wd[20] 0
14 *2109:wd[20] 0
15 *2108:wd[20] 0
16 *2102:wd[20] 0

*RES
1 *2583:Y *2098:wd[20] 0
2 *2583:Y *2112:wd[20] 0
3 *2583:Y *2106:wd[20] 0
4 *2583:Y *2107:wd[20] 0
5 *2583:Y *2103:wd[20] 0
6 *2583:Y *2110:wd[20] 0
7 *2583:Y *2104:wd[20] 0
8 *2583:Y *2101:wd[20] 0
9 *2583:Y *2097:wd[20] 0
10 *2583:Y *2111:wd[20] 0
11 *2583:Y *2105:wd[20] 0
12 *2583:Y *2100:wd[20] 0
13 *2583:Y *2099:wd[20] 0
14 *2583:Y *2109:wd[20] 0
15 *2583:Y *2108:wd[20] 0
16 *2583:Y *2102:wd[20] 0
*END

*D_NET *296 0.000000

*CONN
*I *2098:wd[21] I *L 0.0003 *D srambank_256x4x32_6t122
*I *2112:wd[21] I *L 0.0003 *D srambank_256x4x32_6t122
*I *2106:wd[21] I *L 0.0003 *D srambank_256x4x32_6t122
*I *2107:wd[21] I *L 0.0003 *D srambank_256x4x32_6t122
*I *2103:wd[21] I *L 0.0003 *D srambank_256x4x32_6t122
*I *2110:wd[21] I *L 0.0003 *D srambank_256x4x32_6t122
*I *2104:wd[21] I *L 0.0003 *D srambank_256x4x32_6t122
*I *2101:wd[21] I *L 0.0003 *D srambank_256x4x32_6t122
*I *2097:wd[21] I *L 0.0003 *D srambank_256x4x32_6t122
*I *2111:wd[21] I *L 0.0003 *D srambank_256x4x32_6t122
*I *2105:wd[21] I *L 0.0003 *D srambank_256x4x32_6t122
*I *2100:wd[21] I *L 0.0003 *D srambank_256x4x32_6t122
*I *2099:wd[21] I *L 0.0003 *D srambank_256x4x32_6t122
*I *2109:wd[21] I *L 0.0003 *D srambank_256x4x32_6t122
*I *2108:wd[21] I *L 0.0003 *D srambank_256x4x32_6t122
*I *2102:wd[21] I *L 0.0003 *D srambank_256x4x32_6t122
*I *2580:Y O *L 0.0000 *D AO22x1_ASAP7_75t_L

*CAP
1 *2098:wd[21] 0
2 *2112:wd[21] 0
3 *2106:wd[21] 0
4 *2107:wd[21] 0
5 *2103:wd[21] 0
6 *2110:wd[21] 0
7 *2104:wd[21] 0
8 *2101:wd[21] 0
9 *2097:wd[21] 0
10 *2111:wd[21] 0
11 *2105:wd[21] 0
12 *2100:wd[21] 0
13 *2099:wd[21] 0
14 *2109:wd[21] 0
15 *2108:wd[21] 0
16 *2102:wd[21] 0

*RES
1 *2580:Y *2098:wd[21] 0
2 *2580:Y *2112:wd[21] 0
3 *2580:Y *2106:wd[21] 0
4 *2580:Y *2107:wd[21] 0
5 *2580:Y *2103:wd[21] 0
6 *2580:Y *2110:wd[21] 0
7 *2580:Y *2104:wd[21] 0
8 *2580:Y *2101:wd[21] 0
9 *2580:Y *2097:wd[21] 0
10 *2580:Y *2111:wd[21] 0
11 *2580:Y *2105:wd[21] 0
12 *2580:Y *2100:wd[21] 0
13 *2580:Y *2099:wd[21] 0
14 *2580:Y *2109:wd[21] 0
15 *2580:Y *2108:wd[21] 0
16 *2580:Y *2102:wd[21] 0
*END

*D_NET *297 0.000000

*CONN
*I *2098:wd[22] I *L 0.0003 *D srambank_256x4x32_6t122
*I *2112:wd[22] I *L 0.0003 *D srambank_256x4x32_6t122
*I *2106:wd[22] I *L 0.0003 *D srambank_256x4x32_6t122
*I *2107:wd[22] I *L 0.0003 *D srambank_256x4x32_6t122
*I *2103:wd[22] I *L 0.0003 *D srambank_256x4x32_6t122
*I *2110:wd[22] I *L 0.0003 *D srambank_256x4x32_6t122
*I *2104:wd[22] I *L 0.0003 *D srambank_256x4x32_6t122
*I *2101:wd[22] I *L 0.0003 *D srambank_256x4x32_6t122
*I *2097:wd[22] I *L 0.0003 *D srambank_256x4x32_6t122
*I *2111:wd[22] I *L 0.0003 *D srambank_256x4x32_6t122
*I *2105:wd[22] I *L 0.0003 *D srambank_256x4x32_6t122
*I *2100:wd[22] I *L 0.0003 *D srambank_256x4x32_6t122
*I *2099:wd[22] I *L 0.0003 *D srambank_256x4x32_6t122
*I *2109:wd[22] I *L 0.0003 *D srambank_256x4x32_6t122
*I *2108:wd[22] I *L 0.0003 *D srambank_256x4x32_6t122
*I *2102:wd[22] I *L 0.0003 *D srambank_256x4x32_6t122
*I *2578:Y O *L 0.0000 *D AO22x1_ASAP7_75t_L

*CAP
1 *2098:wd[22] 0
2 *2112:wd[22] 0
3 *2106:wd[22] 0
4 *2107:wd[22] 0
5 *2103:wd[22] 0
6 *2110:wd[22] 0
7 *2104:wd[22] 0
8 *2101:wd[22] 0
9 *2097:wd[22] 0
10 *2111:wd[22] 0
11 *2105:wd[22] 0
12 *2100:wd[22] 0
13 *2099:wd[22] 0
14 *2109:wd[22] 0
15 *2108:wd[22] 0
16 *2102:wd[22] 0

*RES
1 *2578:Y *2098:wd[22] 0
2 *2578:Y *2112:wd[22] 0
3 *2578:Y *2106:wd[22] 0
4 *2578:Y *2107:wd[22] 0
5 *2578:Y *2103:wd[22] 0
6 *2578:Y *2110:wd[22] 0
7 *2578:Y *2104:wd[22] 0
8 *2578:Y *2101:wd[22] 0
9 *2578:Y *2097:wd[22] 0
10 *2578:Y *2111:wd[22] 0
11 *2578:Y *2105:wd[22] 0
12 *2578:Y *2100:wd[22] 0
13 *2578:Y *2099:wd[22] 0
14 *2578:Y *2109:wd[22] 0
15 *2578:Y *2108:wd[22] 0
16 *2578:Y *2102:wd[22] 0
*END

*D_NET *298 0.000000

*CONN
*I *2098:wd[23] I *L 0.0003 *D srambank_256x4x32_6t122
*I *2112:wd[23] I *L 0.0003 *D srambank_256x4x32_6t122
*I *2106:wd[23] I *L 0.0003 *D srambank_256x4x32_6t122
*I *2107:wd[23] I *L 0.0003 *D srambank_256x4x32_6t122
*I *2103:wd[23] I *L 0.0003 *D srambank_256x4x32_6t122
*I *2110:wd[23] I *L 0.0003 *D srambank_256x4x32_6t122
*I *2104:wd[23] I *L 0.0003 *D srambank_256x4x32_6t122
*I *2101:wd[23] I *L 0.0003 *D srambank_256x4x32_6t122
*I *2097:wd[23] I *L 0.0003 *D srambank_256x4x32_6t122
*I *2111:wd[23] I *L 0.0003 *D srambank_256x4x32_6t122
*I *2105:wd[23] I *L 0.0003 *D srambank_256x4x32_6t122
*I *2100:wd[23] I *L 0.0003 *D srambank_256x4x32_6t122
*I *2099:wd[23] I *L 0.0003 *D srambank_256x4x32_6t122
*I *2109:wd[23] I *L 0.0003 *D srambank_256x4x32_6t122
*I *2108:wd[23] I *L 0.0003 *D srambank_256x4x32_6t122
*I *2102:wd[23] I *L 0.0003 *D srambank_256x4x32_6t122
*I *2574:Y O *L 0.0000 *D AO22x1_ASAP7_75t_L

*CAP
1 *2098:wd[23] 0
2 *2112:wd[23] 0
3 *2106:wd[23] 0
4 *2107:wd[23] 0
5 *2103:wd[23] 0
6 *2110:wd[23] 0
7 *2104:wd[23] 0
8 *2101:wd[23] 0
9 *2097:wd[23] 0
10 *2111:wd[23] 0
11 *2105:wd[23] 0
12 *2100:wd[23] 0
13 *2099:wd[23] 0
14 *2109:wd[23] 0
15 *2108:wd[23] 0
16 *2102:wd[23] 0

*RES
1 *2574:Y *2098:wd[23] 0
2 *2574:Y *2112:wd[23] 0
3 *2574:Y *2106:wd[23] 0
4 *2574:Y *2107:wd[23] 0
5 *2574:Y *2103:wd[23] 0
6 *2574:Y *2110:wd[23] 0
7 *2574:Y *2104:wd[23] 0
8 *2574:Y *2101:wd[23] 0
9 *2574:Y *2097:wd[23] 0
10 *2574:Y *2111:wd[23] 0
11 *2574:Y *2105:wd[23] 0
12 *2574:Y *2100:wd[23] 0
13 *2574:Y *2099:wd[23] 0
14 *2574:Y *2109:wd[23] 0
15 *2574:Y *2108:wd[23] 0
16 *2574:Y *2102:wd[23] 0
*END

*D_NET *299 0.000000

*CONN
*I *2098:wd[24] I *L 0.0003 *D srambank_256x4x32_6t122
*I *2112:wd[24] I *L 0.0003 *D srambank_256x4x32_6t122
*I *2106:wd[24] I *L 0.0003 *D srambank_256x4x32_6t122
*I *2107:wd[24] I *L 0.0003 *D srambank_256x4x32_6t122
*I *2103:wd[24] I *L 0.0003 *D srambank_256x4x32_6t122
*I *2110:wd[24] I *L 0.0003 *D srambank_256x4x32_6t122
*I *2104:wd[24] I *L 0.0003 *D srambank_256x4x32_6t122
*I *2101:wd[24] I *L 0.0003 *D srambank_256x4x32_6t122
*I *2097:wd[24] I *L 0.0003 *D srambank_256x4x32_6t122
*I *2111:wd[24] I *L 0.0003 *D srambank_256x4x32_6t122
*I *2105:wd[24] I *L 0.0003 *D srambank_256x4x32_6t122
*I *2100:wd[24] I *L 0.0003 *D srambank_256x4x32_6t122
*I *2099:wd[24] I *L 0.0003 *D srambank_256x4x32_6t122
*I *2109:wd[24] I *L 0.0003 *D srambank_256x4x32_6t122
*I *2108:wd[24] I *L 0.0003 *D srambank_256x4x32_6t122
*I *2102:wd[24] I *L 0.0003 *D srambank_256x4x32_6t122
*I *2554:Y O *L 0.0000 *D AO22x1_ASAP7_75t_L

*CAP
1 *2098:wd[24] 0
2 *2112:wd[24] 0
3 *2106:wd[24] 0
4 *2107:wd[24] 0
5 *2103:wd[24] 0
6 *2110:wd[24] 0
7 *2104:wd[24] 0
8 *2101:wd[24] 0
9 *2097:wd[24] 0
10 *2111:wd[24] 0
11 *2105:wd[24] 0
12 *2100:wd[24] 0
13 *2099:wd[24] 0
14 *2109:wd[24] 0
15 *2108:wd[24] 0
16 *2102:wd[24] 0

*RES
1 *2554:Y *2098:wd[24] 0
2 *2554:Y *2112:wd[24] 0
3 *2554:Y *2106:wd[24] 0
4 *2554:Y *2107:wd[24] 0
5 *2554:Y *2103:wd[24] 0
6 *2554:Y *2110:wd[24] 0
7 *2554:Y *2104:wd[24] 0
8 *2554:Y *2101:wd[24] 0
9 *2554:Y *2097:wd[24] 0
10 *2554:Y *2111:wd[24] 0
11 *2554:Y *2105:wd[24] 0
12 *2554:Y *2100:wd[24] 0
13 *2554:Y *2099:wd[24] 0
14 *2554:Y *2109:wd[24] 0
15 *2554:Y *2108:wd[24] 0
16 *2554:Y *2102:wd[24] 0
*END

*D_NET *300 0.000000

*CONN
*I *2098:wd[25] I *L 0.0003 *D srambank_256x4x32_6t122
*I *2112:wd[25] I *L 0.0003 *D srambank_256x4x32_6t122
*I *2106:wd[25] I *L 0.0003 *D srambank_256x4x32_6t122
*I *2107:wd[25] I *L 0.0003 *D srambank_256x4x32_6t122
*I *2103:wd[25] I *L 0.0003 *D srambank_256x4x32_6t122
*I *2110:wd[25] I *L 0.0003 *D srambank_256x4x32_6t122
*I *2104:wd[25] I *L 0.0003 *D srambank_256x4x32_6t122
*I *2101:wd[25] I *L 0.0003 *D srambank_256x4x32_6t122
*I *2097:wd[25] I *L 0.0003 *D srambank_256x4x32_6t122
*I *2111:wd[25] I *L 0.0003 *D srambank_256x4x32_6t122
*I *2105:wd[25] I *L 0.0003 *D srambank_256x4x32_6t122
*I *2100:wd[25] I *L 0.0003 *D srambank_256x4x32_6t122
*I *2099:wd[25] I *L 0.0003 *D srambank_256x4x32_6t122
*I *2109:wd[25] I *L 0.0003 *D srambank_256x4x32_6t122
*I *2108:wd[25] I *L 0.0003 *D srambank_256x4x32_6t122
*I *2102:wd[25] I *L 0.0003 *D srambank_256x4x32_6t122
*I *2565:Y O *L 0.0000 *D AO22x1_ASAP7_75t_L

*CAP
1 *2098:wd[25] 0
2 *2112:wd[25] 0
3 *2106:wd[25] 0
4 *2107:wd[25] 0
5 *2103:wd[25] 0
6 *2110:wd[25] 0
7 *2104:wd[25] 0
8 *2101:wd[25] 0
9 *2097:wd[25] 0
10 *2111:wd[25] 0
11 *2105:wd[25] 0
12 *2100:wd[25] 0
13 *2099:wd[25] 0
14 *2109:wd[25] 0
15 *2108:wd[25] 0
16 *2102:wd[25] 0

*RES
1 *2565:Y *2098:wd[25] 0
2 *2565:Y *2112:wd[25] 0
3 *2565:Y *2106:wd[25] 0
4 *2565:Y *2107:wd[25] 0
5 *2565:Y *2103:wd[25] 0
6 *2565:Y *2110:wd[25] 0
7 *2565:Y *2104:wd[25] 0
8 *2565:Y *2101:wd[25] 0
9 *2565:Y *2097:wd[25] 0
10 *2565:Y *2111:wd[25] 0
11 *2565:Y *2105:wd[25] 0
12 *2565:Y *2100:wd[25] 0
13 *2565:Y *2099:wd[25] 0
14 *2565:Y *2109:wd[25] 0
15 *2565:Y *2108:wd[25] 0
16 *2565:Y *2102:wd[25] 0
*END

*D_NET *301 0.000000

*CONN
*I *2098:wd[26] I *L 0.0003 *D srambank_256x4x32_6t122
*I *2112:wd[26] I *L 0.0003 *D srambank_256x4x32_6t122
*I *2106:wd[26] I *L 0.0003 *D srambank_256x4x32_6t122
*I *2107:wd[26] I *L 0.0003 *D srambank_256x4x32_6t122
*I *2103:wd[26] I *L 0.0003 *D srambank_256x4x32_6t122
*I *2110:wd[26] I *L 0.0003 *D srambank_256x4x32_6t122
*I *2104:wd[26] I *L 0.0003 *D srambank_256x4x32_6t122
*I *2101:wd[26] I *L 0.0003 *D srambank_256x4x32_6t122
*I *2097:wd[26] I *L 0.0003 *D srambank_256x4x32_6t122
*I *2111:wd[26] I *L 0.0003 *D srambank_256x4x32_6t122
*I *2105:wd[26] I *L 0.0003 *D srambank_256x4x32_6t122
*I *2100:wd[26] I *L 0.0003 *D srambank_256x4x32_6t122
*I *2099:wd[26] I *L 0.0003 *D srambank_256x4x32_6t122
*I *2109:wd[26] I *L 0.0003 *D srambank_256x4x32_6t122
*I *2108:wd[26] I *L 0.0003 *D srambank_256x4x32_6t122
*I *2102:wd[26] I *L 0.0003 *D srambank_256x4x32_6t122
*I *2564:Y O *L 0.0000 *D AO22x1_ASAP7_75t_L

*CAP
1 *2098:wd[26] 0
2 *2112:wd[26] 0
3 *2106:wd[26] 0
4 *2107:wd[26] 0
5 *2103:wd[26] 0
6 *2110:wd[26] 0
7 *2104:wd[26] 0
8 *2101:wd[26] 0
9 *2097:wd[26] 0
10 *2111:wd[26] 0
11 *2105:wd[26] 0
12 *2100:wd[26] 0
13 *2099:wd[26] 0
14 *2109:wd[26] 0
15 *2108:wd[26] 0
16 *2102:wd[26] 0

*RES
1 *2564:Y *2098:wd[26] 0
2 *2564:Y *2112:wd[26] 0
3 *2564:Y *2106:wd[26] 0
4 *2564:Y *2107:wd[26] 0
5 *2564:Y *2103:wd[26] 0
6 *2564:Y *2110:wd[26] 0
7 *2564:Y *2104:wd[26] 0
8 *2564:Y *2101:wd[26] 0
9 *2564:Y *2097:wd[26] 0
10 *2564:Y *2111:wd[26] 0
11 *2564:Y *2105:wd[26] 0
12 *2564:Y *2100:wd[26] 0
13 *2564:Y *2099:wd[26] 0
14 *2564:Y *2109:wd[26] 0
15 *2564:Y *2108:wd[26] 0
16 *2564:Y *2102:wd[26] 0
*END

*D_NET *302 0.000000

*CONN
*I *2098:wd[27] I *L 0.0003 *D srambank_256x4x32_6t122
*I *2112:wd[27] I *L 0.0003 *D srambank_256x4x32_6t122
*I *2106:wd[27] I *L 0.0003 *D srambank_256x4x32_6t122
*I *2107:wd[27] I *L 0.0003 *D srambank_256x4x32_6t122
*I *2103:wd[27] I *L 0.0003 *D srambank_256x4x32_6t122
*I *2110:wd[27] I *L 0.0003 *D srambank_256x4x32_6t122
*I *2104:wd[27] I *L 0.0003 *D srambank_256x4x32_6t122
*I *2101:wd[27] I *L 0.0003 *D srambank_256x4x32_6t122
*I *2097:wd[27] I *L 0.0003 *D srambank_256x4x32_6t122
*I *2111:wd[27] I *L 0.0003 *D srambank_256x4x32_6t122
*I *2105:wd[27] I *L 0.0003 *D srambank_256x4x32_6t122
*I *2100:wd[27] I *L 0.0003 *D srambank_256x4x32_6t122
*I *2099:wd[27] I *L 0.0003 *D srambank_256x4x32_6t122
*I *2109:wd[27] I *L 0.0003 *D srambank_256x4x32_6t122
*I *2108:wd[27] I *L 0.0003 *D srambank_256x4x32_6t122
*I *2102:wd[27] I *L 0.0003 *D srambank_256x4x32_6t122
*I *2560:Y O *L 0.0000 *D AO22x1_ASAP7_75t_L

*CAP
1 *2098:wd[27] 0
2 *2112:wd[27] 0
3 *2106:wd[27] 0
4 *2107:wd[27] 0
5 *2103:wd[27] 0
6 *2110:wd[27] 0
7 *2104:wd[27] 0
8 *2101:wd[27] 0
9 *2097:wd[27] 0
10 *2111:wd[27] 0
11 *2105:wd[27] 0
12 *2100:wd[27] 0
13 *2099:wd[27] 0
14 *2109:wd[27] 0
15 *2108:wd[27] 0
16 *2102:wd[27] 0

*RES
1 *2560:Y *2098:wd[27] 0
2 *2560:Y *2112:wd[27] 0
3 *2560:Y *2106:wd[27] 0
4 *2560:Y *2107:wd[27] 0
5 *2560:Y *2103:wd[27] 0
6 *2560:Y *2110:wd[27] 0
7 *2560:Y *2104:wd[27] 0
8 *2560:Y *2101:wd[27] 0
9 *2560:Y *2097:wd[27] 0
10 *2560:Y *2111:wd[27] 0
11 *2560:Y *2105:wd[27] 0
12 *2560:Y *2100:wd[27] 0
13 *2560:Y *2099:wd[27] 0
14 *2560:Y *2109:wd[27] 0
15 *2560:Y *2108:wd[27] 0
16 *2560:Y *2102:wd[27] 0
*END

*D_NET *303 0.000000

*CONN
*I *2098:wd[28] I *L 0.0003 *D srambank_256x4x32_6t122
*I *2112:wd[28] I *L 0.0003 *D srambank_256x4x32_6t122
*I *2106:wd[28] I *L 0.0003 *D srambank_256x4x32_6t122
*I *2107:wd[28] I *L 0.0003 *D srambank_256x4x32_6t122
*I *2103:wd[28] I *L 0.0003 *D srambank_256x4x32_6t122
*I *2110:wd[28] I *L 0.0003 *D srambank_256x4x32_6t122
*I *2104:wd[28] I *L 0.0003 *D srambank_256x4x32_6t122
*I *2101:wd[28] I *L 0.0003 *D srambank_256x4x32_6t122
*I *2097:wd[28] I *L 0.0003 *D srambank_256x4x32_6t122
*I *2111:wd[28] I *L 0.0003 *D srambank_256x4x32_6t122
*I *2105:wd[28] I *L 0.0003 *D srambank_256x4x32_6t122
*I *2100:wd[28] I *L 0.0003 *D srambank_256x4x32_6t122
*I *2099:wd[28] I *L 0.0003 *D srambank_256x4x32_6t122
*I *2109:wd[28] I *L 0.0003 *D srambank_256x4x32_6t122
*I *2108:wd[28] I *L 0.0003 *D srambank_256x4x32_6t122
*I *2102:wd[28] I *L 0.0003 *D srambank_256x4x32_6t122
*I *2556:Y O *L 0.0000 *D AO22x1_ASAP7_75t_L

*CAP
1 *2098:wd[28] 0
2 *2112:wd[28] 0
3 *2106:wd[28] 0
4 *2107:wd[28] 0
5 *2103:wd[28] 0
6 *2110:wd[28] 0
7 *2104:wd[28] 0
8 *2101:wd[28] 0
9 *2097:wd[28] 0
10 *2111:wd[28] 0
11 *2105:wd[28] 0
12 *2100:wd[28] 0
13 *2099:wd[28] 0
14 *2109:wd[28] 0
15 *2108:wd[28] 0
16 *2102:wd[28] 0

*RES
1 *2556:Y *2098:wd[28] 0
2 *2556:Y *2112:wd[28] 0
3 *2556:Y *2106:wd[28] 0
4 *2556:Y *2107:wd[28] 0
5 *2556:Y *2103:wd[28] 0
6 *2556:Y *2110:wd[28] 0
7 *2556:Y *2104:wd[28] 0
8 *2556:Y *2101:wd[28] 0
9 *2556:Y *2097:wd[28] 0
10 *2556:Y *2111:wd[28] 0
11 *2556:Y *2105:wd[28] 0
12 *2556:Y *2100:wd[28] 0
13 *2556:Y *2099:wd[28] 0
14 *2556:Y *2109:wd[28] 0
15 *2556:Y *2108:wd[28] 0
16 *2556:Y *2102:wd[28] 0
*END

*D_NET *304 0.000000

*CONN
*I *2098:wd[29] I *L 0.0003 *D srambank_256x4x32_6t122
*I *2112:wd[29] I *L 0.0003 *D srambank_256x4x32_6t122
*I *2106:wd[29] I *L 0.0003 *D srambank_256x4x32_6t122
*I *2107:wd[29] I *L 0.0003 *D srambank_256x4x32_6t122
*I *2103:wd[29] I *L 0.0003 *D srambank_256x4x32_6t122
*I *2110:wd[29] I *L 0.0003 *D srambank_256x4x32_6t122
*I *2104:wd[29] I *L 0.0003 *D srambank_256x4x32_6t122
*I *2101:wd[29] I *L 0.0003 *D srambank_256x4x32_6t122
*I *2097:wd[29] I *L 0.0003 *D srambank_256x4x32_6t122
*I *2111:wd[29] I *L 0.0003 *D srambank_256x4x32_6t122
*I *2105:wd[29] I *L 0.0003 *D srambank_256x4x32_6t122
*I *2100:wd[29] I *L 0.0003 *D srambank_256x4x32_6t122
*I *2099:wd[29] I *L 0.0003 *D srambank_256x4x32_6t122
*I *2109:wd[29] I *L 0.0003 *D srambank_256x4x32_6t122
*I *2108:wd[29] I *L 0.0003 *D srambank_256x4x32_6t122
*I *2102:wd[29] I *L 0.0003 *D srambank_256x4x32_6t122
*I *2555:Y O *L 0.0000 *D AO22x1_ASAP7_75t_L

*CAP
1 *2098:wd[29] 0
2 *2112:wd[29] 0
3 *2106:wd[29] 0
4 *2107:wd[29] 0
5 *2103:wd[29] 0
6 *2110:wd[29] 0
7 *2104:wd[29] 0
8 *2101:wd[29] 0
9 *2097:wd[29] 0
10 *2111:wd[29] 0
11 *2105:wd[29] 0
12 *2100:wd[29] 0
13 *2099:wd[29] 0
14 *2109:wd[29] 0
15 *2108:wd[29] 0
16 *2102:wd[29] 0

*RES
1 *2555:Y *2098:wd[29] 0
2 *2555:Y *2112:wd[29] 0
3 *2555:Y *2106:wd[29] 0
4 *2555:Y *2107:wd[29] 0
5 *2555:Y *2103:wd[29] 0
6 *2555:Y *2110:wd[29] 0
7 *2555:Y *2104:wd[29] 0
8 *2555:Y *2101:wd[29] 0
9 *2555:Y *2097:wd[29] 0
10 *2555:Y *2111:wd[29] 0
11 *2555:Y *2105:wd[29] 0
12 *2555:Y *2100:wd[29] 0
13 *2555:Y *2099:wd[29] 0
14 *2555:Y *2109:wd[29] 0
15 *2555:Y *2108:wd[29] 0
16 *2555:Y *2102:wd[29] 0
*END

*D_NET *305 0.000000

*CONN
*I *2098:wd[30] I *L 0.0003 *D srambank_256x4x32_6t122
*I *2112:wd[30] I *L 0.0003 *D srambank_256x4x32_6t122
*I *2106:wd[30] I *L 0.0003 *D srambank_256x4x32_6t122
*I *2107:wd[30] I *L 0.0003 *D srambank_256x4x32_6t122
*I *2103:wd[30] I *L 0.0003 *D srambank_256x4x32_6t122
*I *2110:wd[30] I *L 0.0003 *D srambank_256x4x32_6t122
*I *2104:wd[30] I *L 0.0003 *D srambank_256x4x32_6t122
*I *2101:wd[30] I *L 0.0003 *D srambank_256x4x32_6t122
*I *2097:wd[30] I *L 0.0003 *D srambank_256x4x32_6t122
*I *2111:wd[30] I *L 0.0003 *D srambank_256x4x32_6t122
*I *2105:wd[30] I *L 0.0003 *D srambank_256x4x32_6t122
*I *2100:wd[30] I *L 0.0003 *D srambank_256x4x32_6t122
*I *2099:wd[30] I *L 0.0003 *D srambank_256x4x32_6t122
*I *2109:wd[30] I *L 0.0003 *D srambank_256x4x32_6t122
*I *2108:wd[30] I *L 0.0003 *D srambank_256x4x32_6t122
*I *2102:wd[30] I *L 0.0003 *D srambank_256x4x32_6t122
*I *2573:Y O *L 0.0000 *D AO22x1_ASAP7_75t_L

*CAP
1 *2098:wd[30] 0
2 *2112:wd[30] 0
3 *2106:wd[30] 0
4 *2107:wd[30] 0
5 *2103:wd[30] 0
6 *2110:wd[30] 0
7 *2104:wd[30] 0
8 *2101:wd[30] 0
9 *2097:wd[30] 0
10 *2111:wd[30] 0
11 *2105:wd[30] 0
12 *2100:wd[30] 0
13 *2099:wd[30] 0
14 *2109:wd[30] 0
15 *2108:wd[30] 0
16 *2102:wd[30] 0

*RES
1 *2573:Y *2098:wd[30] 0
2 *2573:Y *2112:wd[30] 0
3 *2573:Y *2106:wd[30] 0
4 *2573:Y *2107:wd[30] 0
5 *2573:Y *2103:wd[30] 0
6 *2573:Y *2110:wd[30] 0
7 *2573:Y *2104:wd[30] 0
8 *2573:Y *2101:wd[30] 0
9 *2573:Y *2097:wd[30] 0
10 *2573:Y *2111:wd[30] 0
11 *2573:Y *2105:wd[30] 0
12 *2573:Y *2100:wd[30] 0
13 *2573:Y *2099:wd[30] 0
14 *2573:Y *2109:wd[30] 0
15 *2573:Y *2108:wd[30] 0
16 *2573:Y *2102:wd[30] 0
*END

*D_NET *306 0.000000

*CONN
*I *2098:wd[31] I *L 0.0003 *D srambank_256x4x32_6t122
*I *2112:wd[31] I *L 0.0003 *D srambank_256x4x32_6t122
*I *2106:wd[31] I *L 0.0003 *D srambank_256x4x32_6t122
*I *2107:wd[31] I *L 0.0003 *D srambank_256x4x32_6t122
*I *2103:wd[31] I *L 0.0003 *D srambank_256x4x32_6t122
*I *2110:wd[31] I *L 0.0003 *D srambank_256x4x32_6t122
*I *2104:wd[31] I *L 0.0003 *D srambank_256x4x32_6t122
*I *2101:wd[31] I *L 0.0003 *D srambank_256x4x32_6t122
*I *2097:wd[31] I *L 0.0003 *D srambank_256x4x32_6t122
*I *2111:wd[31] I *L 0.0003 *D srambank_256x4x32_6t122
*I *2105:wd[31] I *L 0.0003 *D srambank_256x4x32_6t122
*I *2100:wd[31] I *L 0.0003 *D srambank_256x4x32_6t122
*I *2099:wd[31] I *L 0.0003 *D srambank_256x4x32_6t122
*I *2109:wd[31] I *L 0.0003 *D srambank_256x4x32_6t122
*I *2108:wd[31] I *L 0.0003 *D srambank_256x4x32_6t122
*I *2102:wd[31] I *L 0.0003 *D srambank_256x4x32_6t122
*I *2569:Y O *L 0.0000 *D AO22x1_ASAP7_75t_L

*CAP
1 *2098:wd[31] 0
2 *2112:wd[31] 0
3 *2106:wd[31] 0
4 *2107:wd[31] 0
5 *2103:wd[31] 0
6 *2110:wd[31] 0
7 *2104:wd[31] 0
8 *2101:wd[31] 0
9 *2097:wd[31] 0
10 *2111:wd[31] 0
11 *2105:wd[31] 0
12 *2100:wd[31] 0
13 *2099:wd[31] 0
14 *2109:wd[31] 0
15 *2108:wd[31] 0
16 *2102:wd[31] 0

*RES
1 *2569:Y *2098:wd[31] 0
2 *2569:Y *2112:wd[31] 0
3 *2569:Y *2106:wd[31] 0
4 *2569:Y *2107:wd[31] 0
5 *2569:Y *2103:wd[31] 0
6 *2569:Y *2110:wd[31] 0
7 *2569:Y *2104:wd[31] 0
8 *2569:Y *2101:wd[31] 0
9 *2569:Y *2097:wd[31] 0
10 *2569:Y *2111:wd[31] 0
11 *2569:Y *2105:wd[31] 0
12 *2569:Y *2100:wd[31] 0
13 *2569:Y *2099:wd[31] 0
14 *2569:Y *2109:wd[31] 0
15 *2569:Y *2108:wd[31] 0
16 *2569:Y *2102:wd[31] 0
*END

*D_NET *307 0.000000

*CONN
*I *2911:A1 I *L 0.0006 *D A2O1A1Ixp33_ASAP7_75t_L
*I *2961:A2 I *L 0.0006 *D O2A1O1Ixp33_ASAP7_75t_L
*I *3242:A I *L 0.0010 *D XNOR2xp5_ASAP7_75t_L
*I *3257:A I *L 0.0005 *D NAND2xp5_ASAP7_75t_L
*I *2592:A1 I *L 0.0004 *D AO22x1_ASAP7_75t_L
*I *2609:QN O *L 0.0000 *D DFFHQNx1_ASAP7_75t_L

*CAP
1 *2911:A1 0
2 *2961:A2 0
3 *3242:A 0
4 *3257:A 0
5 *2592:A1 0

*RES
1 *2609:QN *2911:A1 0
2 *2609:QN *2961:A2 0
3 *2609:QN *3242:A 0
4 *2609:QN *3257:A 0
5 *2609:QN *2592:A1 0
*END

*D_NET *308 0.000000

*CONN
*I *2913:A1 I *L 0.0006 *D A2O1A1Ixp33_ASAP7_75t_L
*I *3242:B I *L 0.0009 *D XNOR2xp5_ASAP7_75t_L
*I *3257:B I *L 0.0005 *D NAND2xp5_ASAP7_75t_L
*I *2593:A1 I *L 0.0004 *D AO22x1_ASAP7_75t_L
*I *2610:QN O *L 0.0000 *D DFFHQNx1_ASAP7_75t_L

*CAP
1 *2913:A1 0
2 *3242:B 0
3 *3257:B 0
4 *2593:A1 0

*RES
1 *2610:QN *2913:A1 0
2 *2610:QN *3242:B 0
3 *2610:QN *3257:B 0
4 *2610:QN *2593:A1 0
*END

*D_NET *309 0.000000

*CONN
*I *2908:A1 I *L 0.0006 *D A2O1A1Ixp33_ASAP7_75t_L
*I *3207:A I *L 0.0010 *D XOR2xp5_ASAP7_75t_L
*I *3231:A I *L 0.0005 *D NAND2xp5_ASAP7_75t_L
*I *2589:A1 I *L 0.0004 *D AO22x1_ASAP7_75t_L
*I *2611:QN O *L 0.0000 *D DFFHQNx1_ASAP7_75t_L

*CAP
1 *2908:A1 0
2 *3207:A 0
3 *3231:A 0
4 *2589:A1 0

*RES
1 *2611:QN *2908:A1 0
2 *2611:QN *3207:A 0
3 *2611:QN *3231:A 0
4 *2611:QN *2589:A1 0
*END

*D_NET *310 0.000000

*CONN
*I *2909:A1 I *L 0.0006 *D A2O1A1Ixp33_ASAP7_75t_L
*I *3169:A I *L 0.0010 *D XOR2xp5_ASAP7_75t_L
*I *3275:A I *L 0.0006 *D INVx1_ASAP7_75t_L
*I *2587:A1 I *L 0.0004 *D AO22x1_ASAP7_75t_L
*I *2612:QN O *L 0.0000 *D DFFHQNx1_ASAP7_75t_L

*CAP
1 *2909:A1 0
2 *3169:A 0
3 *3275:A 0
4 *2587:A1 0

*RES
1 *2612:QN *2909:A1 0
2 *2612:QN *3169:A 0
3 *2612:QN *3275:A 0
4 *2612:QN *2587:A1 0
*END

*D_NET *311 0.000000

*CONN
*I *3344:A I *L 0.0010 *D XNOR2xp5_ASAP7_75t_L
*I *2910:A1 I *L 0.0006 *D A2O1A1Ixp33_ASAP7_75t_L
*I *3179:A I *L 0.0005 *D NAND2xp5_ASAP7_75t_L
*I *2595:A1 I *L 0.0004 *D AO22x1_ASAP7_75t_L
*I *2613:QN O *L 0.0000 *D DFFHQNx1_ASAP7_75t_L

*CAP
1 *3344:A 0
2 *2910:A1 0
3 *3179:A 0
4 *2595:A1 0

*RES
1 *2613:QN *3344:A 0
2 *2613:QN *2910:A1 0
3 *2613:QN *3179:A 0
4 *2613:QN *2595:A1 0
*END

*D_NET *312 0.000000

*CONN
*I *2852:A1 I *L 0.0006 *D A2O1A1Ixp33_ASAP7_75t_L
*I *3082:A I *L 0.0010 *D XOR2xp5_ASAP7_75t_L
*I *3294:A I *L 0.0006 *D INVx1_ASAP7_75t_L
*I *2590:A1 I *L 0.0004 *D AO22x1_ASAP7_75t_L
*I *2614:QN O *L 0.0000 *D DFFHQNx1_ASAP7_75t_L

*CAP
1 *2852:A1 0
2 *3082:A 0
3 *3294:A 0
4 *2590:A1 0

*RES
1 *2614:QN *2852:A1 0
2 *2614:QN *3082:A 0
3 *2614:QN *3294:A 0
4 *2614:QN *2590:A1 0
*END

*D_NET *313 0.000000

*CONN
*I *3341:A I *L 0.0010 *D XNOR2xp5_ASAP7_75t_L
*I *2841:A1 I *L 0.0006 *D A2O1A1Ixp33_ASAP7_75t_L
*I *3096:A I *L 0.0005 *D NAND2xp5_ASAP7_75t_L
*I *2588:A1 I *L 0.0004 *D AO22x1_ASAP7_75t_L
*I *2615:QN O *L 0.0000 *D DFFHQNx1_ASAP7_75t_L

*CAP
1 *3341:A 0
2 *2841:A1 0
3 *3096:A 0
4 *2588:A1 0

*RES
1 *2615:QN *3341:A 0
2 *2615:QN *2841:A1 0
3 *2615:QN *3096:A 0
4 *2615:QN *2588:A1 0
*END

*D_NET *314 0.000000

*CONN
*I *2822:A1 I *L 0.0006 *D A2O1A1Ixp33_ASAP7_75t_L
*I *2999:A I *L 0.0010 *D XOR2xp5_ASAP7_75t_L
*I *3282:A I *L 0.0006 *D INVx1_ASAP7_75t_L
*I *2594:A1 I *L 0.0004 *D AO22x1_ASAP7_75t_L
*I *2616:QN O *L 0.0000 *D DFFHQNx1_ASAP7_75t_L

*CAP
1 *2822:A1 0
2 *2999:A 0
3 *3282:A 0
4 *2594:A1 0

*RES
1 *2616:QN *2822:A1 0
2 *2616:QN *2999:A 0
3 *2616:QN *3282:A 0
4 *2616:QN *2594:A1 0
*END

*D_NET *315 0.000000

*CONN
*I *3339:A I *L 0.0010 *D XNOR2xp5_ASAP7_75t_L
*I *2789:A1 I *L 0.0006 *D A2O1A1Ixp33_ASAP7_75t_L
*I *2967:A I *L 0.0005 *D NAND2xp5_ASAP7_75t_L
*I *2586:A1 I *L 0.0004 *D AO22x1_ASAP7_75t_L
*I *2617:QN O *L 0.0000 *D DFFHQNx1_ASAP7_75t_L

*CAP
1 *3339:A 0
2 *2789:A1 0
3 *2967:A 0
4 *2586:A1 0

*RES
1 *2617:QN *3339:A 0
2 *2617:QN *2789:A1 0
3 *2617:QN *2967:A 0
4 *2617:QN *2586:A1 0
*END

*D_NET *316 0.000000

*CONN
*I *2783:A1 I *L 0.0006 *D A2O1A1Ixp33_ASAP7_75t_L
*I *2907:A I *L 0.0010 *D XOR2xp5_ASAP7_75t_L
*I *3292:A I *L 0.0006 *D INVx1_ASAP7_75t_L
*I *2591:A1 I *L 0.0004 *D AO22x1_ASAP7_75t_L
*I *2618:QN O *L 0.0000 *D DFFHQNx1_ASAP7_75t_L

*CAP
1 *2783:A1 0
2 *2907:A 0
3 *3292:A 0
4 *2591:A1 0

*RES
1 *2618:QN *2783:A1 0
2 *2618:QN *2907:A 0
3 *2618:QN *3292:A 0
4 *2618:QN *2591:A1 0
*END

*D_NET *317 0.000000

*CONN
*I *3337:A I *L 0.0010 *D XNOR2xp5_ASAP7_75t_L
*I *2776:A1 I *L 0.0006 *D A2O1A1Ixp33_ASAP7_75t_L
*I *2887:A I *L 0.0005 *D NAND2xp5_ASAP7_75t_L
*I *2545:B1 I *L 0.0004 *D AO22x1_ASAP7_75t_L
*I *2619:QN O *L 0.0000 *D DFFHQNx1_ASAP7_75t_L

*CAP
1 *3337:A 0
2 *2776:A1 0
3 *2887:A 0
4 *2545:B1 0

*RES
1 *2619:QN *3337:A 0
2 *2619:QN *2776:A1 0
3 *2619:QN *2887:A 0
4 *2619:QN *2545:B1 0
*END

*D_NET *318 0.000000

*CONN
*I *2770:A1 I *L 0.0006 *D A2O1A1Ixp33_ASAP7_75t_L
*I *2844:A I *L 0.0010 *D XOR2xp5_ASAP7_75t_L
*I *3280:A I *L 0.0006 *D INVx1_ASAP7_75t_L
*I *2544:B1 I *L 0.0004 *D AO22x1_ASAP7_75t_L
*I *2620:QN O *L 0.0000 *D DFFHQNx1_ASAP7_75t_L

*CAP
1 *2770:A1 0
2 *2844:A 0
3 *3280:A 0
4 *2544:B1 0

*RES
1 *2620:QN *2770:A1 0
2 *2620:QN *2844:A 0
3 *2620:QN *3280:A 0
4 *2620:QN *2544:B1 0
*END

*D_NET *319 0.000000

*CONN
*I *3336:A I *L 0.0010 *D XNOR2xp5_ASAP7_75t_L
*I *2766:A1 I *L 0.0006 *D A2O1A1Ixp33_ASAP7_75t_L
*I *2832:A I *L 0.0005 *D NAND2xp5_ASAP7_75t_L
*I *2543:B1 I *L 0.0004 *D AO22x1_ASAP7_75t_L
*I *2621:QN O *L 0.0000 *D DFFHQNx1_ASAP7_75t_L

*CAP
1 *3336:A 0
2 *2766:A1 0
3 *2832:A 0
4 *2543:B1 0

*RES
1 *2621:QN *3336:A 0
2 *2621:QN *2766:A1 0
3 *2621:QN *2832:A 0
4 *2621:QN *2543:B1 0
*END

*D_NET *320 0.000000

*CONN
*I *2764:A1 I *L 0.0006 *D A2O1A1Ixp33_ASAP7_75t_L
*I *2803:A I *L 0.0010 *D XOR2xp5_ASAP7_75t_L
*I *2542:B1 I *L 0.0004 *D AO22x1_ASAP7_75t_L
*I *2622:QN O *L 0.0000 *D DFFHQNx1_ASAP7_75t_L

*CAP
1 *2764:A1 0
2 *2803:A 0
3 *2542:B1 0

*RES
1 *2622:QN *2764:A1 0
2 *2622:QN *2803:A 0
3 *2622:QN *2542:B1 0
*END

*D_NET *321 0.000000

*CONN
*I *2938:A1 I *L 0.0006 *D A2O1A1Ixp33_ASAP7_75t_L
*P *192 O
*I *2632:QN O *L 0.0000 *D DFFHQNx1_ASAP7_75t_L

*CAP
1 *2938:A1 0
2 *192 0

*RES
1 *2632:QN *2938:A1 0
2 *2632:QN *192 0
*END

*D_NET *322 0.000000

*CONN
*I *2939:A1 I *L 0.0006 *D A2O1A1Ixp33_ASAP7_75t_L
*P *191 O
*I *2633:QN O *L 0.0000 *D DFFHQNx1_ASAP7_75t_L

*CAP
1 *2939:A1 0
2 *191 0

*RES
1 *2633:QN *2939:A1 0
2 *2633:QN *191 0
*END

*D_NET *323 0.000000

*CONN
*I *2940:A1 I *L 0.0006 *D A2O1A1Ixp33_ASAP7_75t_L
*P *190 O
*I *2634:QN O *L 0.0000 *D DFFHQNx1_ASAP7_75t_L

*CAP
1 *2940:A1 0
2 *190 0

*RES
1 *2634:QN *2940:A1 0
2 *2634:QN *190 0
*END

*D_NET *324 0.000000

*CONN
*I *2941:A1 I *L 0.0006 *D A2O1A1Ixp33_ASAP7_75t_L
*P *189 O
*I *2635:QN O *L 0.0000 *D DFFHQNx1_ASAP7_75t_L

*CAP
1 *2941:A1 0
2 *189 0

*RES
1 *2635:QN *2941:A1 0
2 *2635:QN *189 0
*END

*D_NET *325 0.000000

*CONN
*I *2942:A1 I *L 0.0006 *D A2O1A1Ixp33_ASAP7_75t_L
*P *188 O
*I *2636:QN O *L 0.0000 *D DFFHQNx1_ASAP7_75t_L

*CAP
1 *2942:A1 0
2 *188 0

*RES
1 *2636:QN *2942:A1 0
2 *2636:QN *188 0
*END

*D_NET *326 0.000000

*CONN
*I *2927:A1 I *L 0.0006 *D A2O1A1Ixp33_ASAP7_75t_L
*I *3200:A I *L 0.0005 *D AND2x2_ASAP7_75t_L
*I *3259:A I *L 0.0005 *D NAND2xp5_ASAP7_75t_L
*P *187 O
*P *177 O
*I *2646:QN O *L 0.0000 *D DFFHQNx1_ASAP7_75t_L

*CAP
1 *2927:A1 0
2 *3200:A 0
3 *3259:A 0
4 *187 0
5 *177 0

*RES
1 *2646:QN *2927:A1 0
2 *2646:QN *3200:A 0
3 *2646:QN *3259:A 0
4 *2646:QN *187 0
5 *2646:QN *177 0
*END

*D_NET *327 0.000000

*CONN
*I *3061:A1 I *L 0.0006 *D A2O1A1Ixp33_ASAP7_75t_L
*P *183 O
*I *2647:QN O *L 0.0000 *D DFFHQNx1_ASAP7_75t_L

*CAP
1 *3061:A1 0
2 *183 0

*RES
1 *2647:QN *3061:A1 0
2 *2647:QN *183 0
*END

*D_NET *328 0.000000

*CONN
*I *3062:A1 I *L 0.0006 *D A2O1A1Ixp33_ASAP7_75t_L
*P *182 O
*I *2648:QN O *L 0.0000 *D DFFHQNx1_ASAP7_75t_L

*CAP
1 *3062:A1 0
2 *182 0

*RES
1 *2648:QN *3062:A1 0
2 *2648:QN *182 0
*END

*D_NET *329 0.000000

*CONN
*I *3063:A1 I *L 0.0006 *D A2O1A1Ixp33_ASAP7_75t_L
*P *181 O
*I *2649:QN O *L 0.0000 *D DFFHQNx1_ASAP7_75t_L

*CAP
1 *3063:A1 0
2 *181 0

*RES
1 *2649:QN *3063:A1 0
2 *2649:QN *181 0
*END

*D_NET *330 0.000000

*CONN
*I *3064:A1 I *L 0.0006 *D A2O1A1Ixp33_ASAP7_75t_L
*P *180 O
*I *2650:QN O *L 0.0000 *D DFFHQNx1_ASAP7_75t_L

*CAP
1 *3064:A1 0
2 *180 0

*RES
1 *2650:QN *3064:A1 0
2 *2650:QN *180 0
*END

*D_NET *331 0.000000

*CONN
*I *3065:A1 I *L 0.0006 *D A2O1A1Ixp33_ASAP7_75t_L
*P *179 O
*I *2651:QN O *L 0.0000 *D DFFHQNx1_ASAP7_75t_L

*CAP
1 *3065:A1 0
2 *179 0

*RES
1 *2651:QN *3065:A1 0
2 *2651:QN *179 0
*END

*D_NET *332 0.000000

*CONN
*I *2821:A1 I *L 0.0006 *D A2O1A1Ixp33_ASAP7_75t_L
*P *184 O
*I *2652:QN O *L 0.0000 *D DFFHQNx1_ASAP7_75t_L

*CAP
1 *2821:A1 0
2 *184 0

*RES
1 *2652:QN *2821:A1 0
2 *2652:QN *184 0
*END

*D_NET *333 0.000000

*CONN
*I *2791:A1 I *L 0.0006 *D A2O1A1Ixp33_ASAP7_75t_L
*I *3180:C I *L 0.0005 *D NAND3xp33_ASAP7_75t_L
*P *186 O
*I *2653:QN O *L 0.0000 *D DFFHQNx1_ASAP7_75t_L

*CAP
1 *2791:A1 0
2 *3180:C 0
3 *186 0

*RES
1 *2653:QN *2791:A1 0
2 *2653:QN *3180:C 0
3 *2653:QN *186 0
*END

*D_NET *334 0.000000

*CONN
*I *2878:A1 I *L 0.0006 *D A2O1A1Ixp33_ASAP7_75t_L
*P *224 O
*I *2654:QN O *L 0.0000 *D DFFHQNx1_ASAP7_75t_L

*CAP
1 *2878:A1 0
2 *224 0

*RES
1 *2654:QN *2878:A1 0
2 *2654:QN *224 0
*END

*D_NET *335 0.000000

*CONN
*I *2879:A1 I *L 0.0006 *D A2O1A1Ixp33_ASAP7_75t_L
*P *223 O
*I *2655:QN O *L 0.0000 *D DFFHQNx1_ASAP7_75t_L

*CAP
1 *2879:A1 0
2 *223 0

*RES
1 *2655:QN *2879:A1 0
2 *2655:QN *223 0
*END

*D_NET *336 0.000000

*CONN
*I *2880:A1 I *L 0.0006 *D A2O1A1Ixp33_ASAP7_75t_L
*P *222 O
*I *2656:QN O *L 0.0000 *D DFFHQNx1_ASAP7_75t_L

*CAP
1 *2880:A1 0
2 *222 0

*RES
1 *2656:QN *2880:A1 0
2 *2656:QN *222 0
*END

*D_NET *337 0.000000

*CONN
*I *2881:A1 I *L 0.0006 *D A2O1A1Ixp33_ASAP7_75t_L
*P *221 O
*I *2657:QN O *L 0.0000 *D DFFHQNx1_ASAP7_75t_L

*CAP
1 *2881:A1 0
2 *221 0

*RES
1 *2657:QN *2881:A1 0
2 *2657:QN *221 0
*END

*D_NET *338 0.000000

*CONN
*I *2868:A1 I *L 0.0006 *D A2O1A1Ixp33_ASAP7_75t_L
*P *220 O
*I *2658:QN O *L 0.0000 *D DFFHQNx1_ASAP7_75t_L

*CAP
1 *2868:A1 0
2 *220 0

*RES
1 *2658:QN *2868:A1 0
2 *2658:QN *220 0
*END

*D_NET *339 0.000000

*CONN
*I *2883:A1 I *L 0.0006 *D A2O1A1Ixp33_ASAP7_75t_L
*P *219 O
*I *2659:QN O *L 0.0000 *D DFFHQNx1_ASAP7_75t_L

*CAP
1 *2883:A1 0
2 *219 0

*RES
1 *2659:QN *2883:A1 0
2 *2659:QN *219 0
*END

*D_NET *340 0.000000

*CONN
*I *2884:A1 I *L 0.0006 *D A2O1A1Ixp33_ASAP7_75t_L
*P *218 O
*I *2660:QN O *L 0.0000 *D DFFHQNx1_ASAP7_75t_L

*CAP
1 *2884:A1 0
2 *218 0

*RES
1 *2660:QN *2884:A1 0
2 *2660:QN *218 0
*END

*D_NET *341 0.000000

*CONN
*I *2885:A1 I *L 0.0006 *D A2O1A1Ixp33_ASAP7_75t_L
*P *217 O
*I *2661:QN O *L 0.0000 *D DFFHQNx1_ASAP7_75t_L

*CAP
1 *2885:A1 0
2 *217 0

*RES
1 *2661:QN *2885:A1 0
2 *2661:QN *217 0
*END

*D_NET *342 0.000000

*CONN
*I *2886:A1 I *L 0.0006 *D A2O1A1Ixp33_ASAP7_75t_L
*P *216 O
*I *2662:QN O *L 0.0000 *D DFFHQNx1_ASAP7_75t_L

*CAP
1 *2886:A1 0
2 *216 0

*RES
1 *2662:QN *2886:A1 0
2 *2662:QN *216 0
*END

*D_NET *343 0.000000

*CONN
*I *2882:A1 I *L 0.0006 *D A2O1A1Ixp33_ASAP7_75t_L
*P *215 O
*I *2663:QN O *L 0.0000 *D DFFHQNx1_ASAP7_75t_L

*CAP
1 *2882:A1 0
2 *215 0

*RES
1 *2663:QN *2882:A1 0
2 *2663:QN *215 0
*END

*D_NET *344 0.000000

*CONN
*I *2877:A1 I *L 0.0006 *D A2O1A1Ixp33_ASAP7_75t_L
*P *214 O
*I *2664:QN O *L 0.0000 *D DFFHQNx1_ASAP7_75t_L

*CAP
1 *2877:A1 0
2 *214 0

*RES
1 *2664:QN *2877:A1 0
2 *2664:QN *214 0
*END

*D_NET *345 0.000000

*CONN
*I *2876:A1 I *L 0.0006 *D A2O1A1Ixp33_ASAP7_75t_L
*P *213 O
*I *2665:QN O *L 0.0000 *D DFFHQNx1_ASAP7_75t_L

*CAP
1 *2876:A1 0
2 *213 0

*RES
1 *2665:QN *2876:A1 0
2 *2665:QN *213 0
*END

*D_NET *346 0.000000

*CONN
*I *2875:A1 I *L 0.0006 *D A2O1A1Ixp33_ASAP7_75t_L
*P *212 O
*I *2666:QN O *L 0.0000 *D DFFHQNx1_ASAP7_75t_L

*CAP
1 *2875:A1 0
2 *212 0

*RES
1 *2666:QN *2875:A1 0
2 *2666:QN *212 0
*END

*D_NET *347 0.000000

*CONN
*I *2874:A1 I *L 0.0006 *D A2O1A1Ixp33_ASAP7_75t_L
*P *211 O
*I *2667:QN O *L 0.0000 *D DFFHQNx1_ASAP7_75t_L

*CAP
1 *2874:A1 0
2 *211 0

*RES
1 *2667:QN *2874:A1 0
2 *2667:QN *211 0
*END

*D_NET *348 0.000000

*CONN
*I *2873:A1 I *L 0.0006 *D A2O1A1Ixp33_ASAP7_75t_L
*P *210 O
*I *2668:QN O *L 0.0000 *D DFFHQNx1_ASAP7_75t_L

*CAP
1 *2873:A1 0
2 *210 0

*RES
1 *2668:QN *2873:A1 0
2 *2668:QN *210 0
*END

*D_NET *349 0.000000

*CONN
*I *2872:A1 I *L 0.0006 *D A2O1A1Ixp33_ASAP7_75t_L
*P *209 O
*I *2669:QN O *L 0.0000 *D DFFHQNx1_ASAP7_75t_L

*CAP
1 *2872:A1 0
2 *209 0

*RES
1 *2669:QN *2872:A1 0
2 *2669:QN *209 0
*END

*D_NET *350 0.000000

*CONN
*I *2871:A1 I *L 0.0006 *D A2O1A1Ixp33_ASAP7_75t_L
*P *208 O
*I *2670:QN O *L 0.0000 *D DFFHQNx1_ASAP7_75t_L

*CAP
1 *2871:A1 0
2 *208 0

*RES
1 *2670:QN *2871:A1 0
2 *2670:QN *208 0
*END

*D_NET *351 0.000000

*CONN
*I *2870:A1 I *L 0.0006 *D A2O1A1Ixp33_ASAP7_75t_L
*P *207 O
*I *2671:QN O *L 0.0000 *D DFFHQNx1_ASAP7_75t_L

*CAP
1 *2870:A1 0
2 *207 0

*RES
1 *2671:QN *2870:A1 0
2 *2671:QN *207 0
*END

*D_NET *352 0.000000

*CONN
*I *2869:A1 I *L 0.0006 *D A2O1A1Ixp33_ASAP7_75t_L
*P *206 O
*I *2672:QN O *L 0.0000 *D DFFHQNx1_ASAP7_75t_L

*CAP
1 *2869:A1 0
2 *206 0

*RES
1 *2672:QN *2869:A1 0
2 *2672:QN *206 0
*END

*D_NET *353 0.000000

*CONN
*I *2903:A1 I *L 0.0006 *D A2O1A1Ixp33_ASAP7_75t_L
*P *205 O
*I *2673:QN O *L 0.0000 *D DFFHQNx1_ASAP7_75t_L

*CAP
1 *2903:A1 0
2 *205 0

*RES
1 *2673:QN *2903:A1 0
2 *2673:QN *205 0
*END

*D_NET *354 0.000000

*CONN
*I *2891:A1 I *L 0.0006 *D A2O1A1Ixp33_ASAP7_75t_L
*P *204 O
*I *2674:QN O *L 0.0000 *D DFFHQNx1_ASAP7_75t_L

*CAP
1 *2891:A1 0
2 *204 0

*RES
1 *2674:QN *2891:A1 0
2 *2674:QN *204 0
*END

*D_NET *355 0.000000

*CONN
*I *2892:A1 I *L 0.0006 *D A2O1A1Ixp33_ASAP7_75t_L
*P *203 O
*I *2675:QN O *L 0.0000 *D DFFHQNx1_ASAP7_75t_L

*CAP
1 *2892:A1 0
2 *203 0

*RES
1 *2675:QN *2892:A1 0
2 *2675:QN *203 0
*END

*D_NET *356 0.000000

*CONN
*I *2893:A1 I *L 0.0006 *D A2O1A1Ixp33_ASAP7_75t_L
*P *202 O
*I *2676:QN O *L 0.0000 *D DFFHQNx1_ASAP7_75t_L

*CAP
1 *2893:A1 0
2 *202 0

*RES
1 *2676:QN *2893:A1 0
2 *2676:QN *202 0
*END

*D_NET *357 0.000000

*CONN
*I *2894:A1 I *L 0.0006 *D A2O1A1Ixp33_ASAP7_75t_L
*P *201 O
*I *2677:QN O *L 0.0000 *D DFFHQNx1_ASAP7_75t_L

*CAP
1 *2894:A1 0
2 *201 0

*RES
1 *2677:QN *2894:A1 0
2 *2677:QN *201 0
*END

*D_NET *358 0.000000

*CONN
*I *2895:A1 I *L 0.0006 *D A2O1A1Ixp33_ASAP7_75t_L
*P *200 O
*I *2678:QN O *L 0.0000 *D DFFHQNx1_ASAP7_75t_L

*CAP
1 *2895:A1 0
2 *200 0

*RES
1 *2678:QN *2895:A1 0
2 *2678:QN *200 0
*END

*D_NET *359 0.000000

*CONN
*I *2896:A1 I *L 0.0006 *D A2O1A1Ixp33_ASAP7_75t_L
*P *199 O
*I *2679:QN O *L 0.0000 *D DFFHQNx1_ASAP7_75t_L

*CAP
1 *2896:A1 0
2 *199 0

*RES
1 *2679:QN *2896:A1 0
2 *2679:QN *199 0
*END

*D_NET *360 0.000000

*CONN
*I *2897:A1 I *L 0.0006 *D A2O1A1Ixp33_ASAP7_75t_L
*P *198 O
*I *2680:QN O *L 0.0000 *D DFFHQNx1_ASAP7_75t_L

*CAP
1 *2897:A1 0
2 *198 0

*RES
1 *2680:QN *2897:A1 0
2 *2680:QN *198 0
*END

*D_NET *361 0.000000

*CONN
*I *2898:A1 I *L 0.0006 *D A2O1A1Ixp33_ASAP7_75t_L
*P *197 O
*I *2681:QN O *L 0.0000 *D DFFHQNx1_ASAP7_75t_L

*CAP
1 *2898:A1 0
2 *197 0

*RES
1 *2681:QN *2898:A1 0
2 *2681:QN *197 0
*END

*D_NET *362 0.000000

*CONN
*I *2899:A1 I *L 0.0006 *D A2O1A1Ixp33_ASAP7_75t_L
*P *196 O
*I *2682:QN O *L 0.0000 *D DFFHQNx1_ASAP7_75t_L

*CAP
1 *2899:A1 0
2 *196 0

*RES
1 *2682:QN *2899:A1 0
2 *2682:QN *196 0
*END

*D_NET *363 0.000000

*CONN
*I *2900:A1 I *L 0.0006 *D A2O1A1Ixp33_ASAP7_75t_L
*P *195 O
*I *2683:QN O *L 0.0000 *D DFFHQNx1_ASAP7_75t_L

*CAP
1 *2900:A1 0
2 *195 0

*RES
1 *2683:QN *2900:A1 0
2 *2683:QN *195 0
*END

*D_NET *364 0.000000

*CONN
*I *2901:A1 I *L 0.0006 *D A2O1A1Ixp33_ASAP7_75t_L
*P *194 O
*I *2684:QN O *L 0.0000 *D DFFHQNx1_ASAP7_75t_L

*CAP
1 *2901:A1 0
2 *194 0

*RES
1 *2684:QN *2901:A1 0
2 *2684:QN *194 0
*END

*D_NET *365 0.000000

*CONN
*I *2902:A1 I *L 0.0006 *D A2O1A1Ixp33_ASAP7_75t_L
*P *193 O
*I *2685:QN O *L 0.0000 *D DFFHQNx1_ASAP7_75t_L

*CAP
1 *2902:A1 0
2 *193 0

*RES
1 *2685:QN *2902:A1 0
2 *2685:QN *193 0
*END

*D_NET *366 0.000000

*CONN
*I *2769:A1 I *L 0.0006 *D A2O1A1Ixp33_ASAP7_75t_L
*I *2809:B2 I *L 0.0005 *D OAI33xp33_ASAP7_75t_L
*I *3094:A1 I *L 0.0005 *D AOI211xp5_ASAP7_75t_L
*I *3302:A I *L 0.0006 *D INVx1_ASAP7_75t_L
*I *3103:A I *L 0.0003 *D NOR2xp33_ASAP7_75t_L
*P *227 O
*I *2686:QN O *L 0.0000 *D DFFHQNx1_ASAP7_75t_L

*CAP
1 *2769:A1 0
2 *2809:B2 0
3 *3094:A1 0
4 *3302:A 0
5 *3103:A 0
6 *227 0

*RES
1 *2686:QN *2769:A1 0
2 *2686:QN *2809:B2 0
3 *2686:QN *3094:A1 0
4 *2686:QN *3302:A 0
5 *2686:QN *3103:A 0
6 *2686:QN *227 0
*END

*D_NET *367 0.000000

*CONN
*I *2906:A1 I *L 0.0006 *D A2O1A1Ixp33_ASAP7_75t_L
*P *225 O
*I *2687:QN O *L 0.0000 *D DFFHQNx1_ASAP7_75t_L

*CAP
1 *2906:A1 0
2 *225 0

*RES
1 *2687:QN *2906:A1 0
2 *2687:QN *225 0
*END

*D_NET *368 0.000000

*CONN
*I *2934:A1 I *L 0.0006 *D A2O1A1Ixp33_ASAP7_75t_L
*I *3182:C I *L 0.0005 *D NAND3xp33_ASAP7_75t_L
*P *228 O
*I *2688:QN O *L 0.0000 *D DFFHQNx1_ASAP7_75t_L

*CAP
1 *2934:A1 0
2 *3182:C 0
3 *228 0

*RES
1 *2688:QN *2934:A1 0
2 *2688:QN *3182:C 0
3 *2688:QN *228 0
*END

*D_NET *369 0.000000

*CONN
*I *2824:A1 I *L 0.0006 *D A2O1A1Ixp33_ASAP7_75t_L
*I *3267:A I *L 0.0005 *D NAND2xp5_ASAP7_75t_L
*P *178 O
*I *2689:QN O *L 0.0000 *D DFFHQNx1_ASAP7_75t_L

*CAP
1 *2824:A1 0
2 *3267:A 0
3 *178 0

*RES
1 *2689:QN *2824:A1 0
2 *2689:QN *3267:A 0
3 *2689:QN *178 0
*END

*D_NET *370 0.000000

*CONN
*I *2842:A2 I *L 0.0006 *D O2A1O1Ixp33_ASAP7_75t_L
*I *2786:A2 I *L 0.0005 *D AOI221xp5_ASAP7_75t_L
*I *3255:A I *L 0.0005 *D NAND2xp5_ASAP7_75t_L
*I *3299:A I *L 0.0006 *D INVx1_ASAP7_75t_L
*I *2553:A I *L 0.0003 *D NOR2xp33_ASAP7_75t_L
*I *2690:QN O *L 0.0000 *D DFFHQNx1_ASAP7_75t_L

*CAP
1 *2842:A2 0
2 *2786:A2 0
3 *3255:A 0
4 *3299:A 0
5 *2553:A 0

*RES
1 *2690:QN *2842:A2 0
2 *2690:QN *2786:A2 0
3 *2690:QN *3255:A 0
4 *2690:QN *3299:A 0
5 *2690:QN *2553:A 0
*END

*D_NET *371 0.000000

*CONN
*I *3212:C I *L 0.0006 *D O2A1O1Ixp33_ASAP7_75t_L
*I *3266:A I *L 0.0005 *D NAND2xp5_ASAP7_75t_L
*I *3234:C I *L 0.0006 *D OR3x1_ASAP7_75t_L
*I *3235:C I *L 0.0005 *D NOR3xp33_ASAP7_75t_L
*I *3268:A I *L 0.0003 *D NOR2xp33_ASAP7_75t_L
*I *2547:A I *L 0.0005 *D NAND2xp5_ASAP7_75t_L
*I *2551:A I *L 0.0005 *D NAND2xp5_ASAP7_75t_L
*I *2548:A I *L 0.0005 *D OR2x2_ASAP7_75t_L
*I *2691:QN O *L 0.0000 *D DFFHQNx1_ASAP7_75t_L

*CAP
1 *3212:C 0
2 *3266:A 0
3 *3234:C 0
4 *3235:C 0
5 *3268:A 0
6 *2547:A 0
7 *2551:A 0
8 *2548:A 0

*RES
1 *2691:QN *3212:C 0
2 *2691:QN *3266:A 0
3 *2691:QN *3234:C 0
4 *2691:QN *3235:C 0
5 *2691:QN *3268:A 0
6 *2691:QN *2547:A 0
7 *2691:QN *2551:A 0
8 *2691:QN *2548:A 0
*END

*D_NET *372 0.000000

*CONN
*I *3255:B I *L 0.0005 *D NAND2xp5_ASAP7_75t_L
*I *2954:A I *L 0.0003 *D NOR2xp33_ASAP7_75t_L
*I *2807:A1 I *L 0.0004 *D AO22x1_ASAP7_75t_L
*I *3303:A I *L 0.0006 *D INVx1_ASAP7_75t_L
*I *3235:B I *L 0.0005 *D NOR3xp33_ASAP7_75t_L
*I *3270:A I *L 0.0003 *D NOR2xp33_ASAP7_75t_L
*I *2546:A1 I *L 0.0006 *D OAI21xp5_ASAP7_75t_L
*I *2550:A I *L 0.0005 *D NAND2xp5_ASAP7_75t_L
*I *2692:QN O *L 0.0000 *D DFFHQNx1_ASAP7_75t_L

*CAP
1 *3255:B 0
2 *2954:A 0
3 *2807:A1 0
4 *3303:A 0
5 *3235:B 0
6 *3270:A 0
7 *2546:A1 0
8 *2550:A 0

*RES
1 *2692:QN *3255:B 0
2 *2692:QN *2954:A 0
3 *2692:QN *2807:A1 0
4 *2692:QN *3303:A 0
5 *2692:QN *3235:B 0
6 *2692:QN *3270:A 0
7 *2692:QN *2546:A1 0
8 *2692:QN *2550:A 0
*END

*D_NET *373 0.000000

*CONN
*I *3212:A2 I *L 0.0006 *D O2A1O1Ixp33_ASAP7_75t_L
*I *2779:A2 I *L 0.0005 *D AOI221xp5_ASAP7_75t_L
*I *3296:A I *L 0.0006 *D INVx1_ASAP7_75t_L
*I *3268:B I *L 0.0004 *D NOR2xp33_ASAP7_75t_L
*I *2553:B I *L 0.0004 *D NOR2xp33_ASAP7_75t_L
*I *2693:QN O *L 0.0000 *D DFFHQNx1_ASAP7_75t_L

*CAP
1 *3212:A2 0
2 *2779:A2 0
3 *3296:A 0
4 *3268:B 0
5 *2553:B 0

*RES
1 *2693:QN *3212:A2 0
2 *2693:QN *2779:A2 0
3 *2693:QN *3296:A 0
4 *2693:QN *3268:B 0
5 *2693:QN *2553:B 0
*END

*D_NET *374 0.000000

*CONN
*I *2799:A1 I *L 0.0006 *D A2O1A1Ixp33_ASAP7_75t_L
*I *2840:A2 I *L 0.0006 *D O2A1O1Ixp33_ASAP7_75t_L
*I *3241:A I *L 0.0010 *D XOR2xp5_ASAP7_75t_L
*I *3271:A I *L 0.0005 *D NAND2xp5_ASAP7_75t_L
*I *2592:B1 I *L 0.0004 *D AO22x1_ASAP7_75t_L
*I *2694:QN O *L 0.0000 *D DFFHQNx1_ASAP7_75t_L

*CAP
1 *2799:A1 0
2 *2840:A2 0
3 *3241:A 0
4 *3271:A 0
5 *2592:B1 0

*RES
1 *2694:QN *2799:A1 0
2 *2694:QN *2840:A2 0
3 *2694:QN *3241:A 0
4 *2694:QN *3271:A 0
5 *2694:QN *2592:B1 0
*END

*D_NET *375 0.000000

*CONN
*I *2801:A1 I *L 0.0006 *D A2O1A1Ixp33_ASAP7_75t_L
*I *3241:B I *L 0.0010 *D XOR2xp5_ASAP7_75t_L
*I *3271:B I *L 0.0005 *D NAND2xp5_ASAP7_75t_L
*I *2593:B1 I *L 0.0004 *D AO22x1_ASAP7_75t_L
*I *2695:QN O *L 0.0000 *D DFFHQNx1_ASAP7_75t_L

*CAP
1 *2801:A1 0
2 *3241:B 0
3 *3271:B 0
4 *2593:B1 0

*RES
1 *2695:QN *2801:A1 0
2 *2695:QN *3241:B 0
3 *2695:QN *3271:B 0
4 *2695:QN *2593:B1 0
*END

*D_NET *376 0.000000

*CONN
*I *2788:A1 I *L 0.0006 *D A2O1A1Ixp33_ASAP7_75t_L
*I *3208:A I *L 0.0010 *D XNOR2xp5_ASAP7_75t_L
*I *3232:A I *L 0.0005 *D NAND2xp5_ASAP7_75t_L
*I *2589:B1 I *L 0.0004 *D AO22x1_ASAP7_75t_L
*I *2696:QN O *L 0.0000 *D DFFHQNx1_ASAP7_75t_L

*CAP
1 *2788:A1 0
2 *3208:A 0
3 *3232:A 0
4 *2589:B1 0

*RES
1 *2696:QN *2788:A1 0
2 *2696:QN *3208:A 0
3 *2696:QN *3232:A 0
4 *2696:QN *2589:B1 0
*END

*D_NET *377 0.000000

*CONN
*I *2793:A1 I *L 0.0006 *D A2O1A1Ixp33_ASAP7_75t_L
*I *3170:A I *L 0.0010 *D XNOR2xp5_ASAP7_75t_L
*I *3287:A I *L 0.0006 *D INVx1_ASAP7_75t_L
*I *2587:B1 I *L 0.0004 *D AO22x1_ASAP7_75t_L
*I *2697:QN O *L 0.0000 *D DFFHQNx1_ASAP7_75t_L

*CAP
1 *2793:A1 0
2 *3170:A 0
3 *3287:A 0
4 *2587:B1 0

*RES
1 *2697:QN *2793:A1 0
2 *2697:QN *3170:A 0
3 *2697:QN *3287:A 0
4 *2697:QN *2587:B1 0
*END

*D_NET *378 0.000000

*CONN
*I *3346:A I *L 0.0010 *D XOR2xp5_ASAP7_75t_L
*I *2794:A1 I *L 0.0006 *D A2O1A1Ixp33_ASAP7_75t_L
*I *3178:A I *L 0.0005 *D NAND2xp5_ASAP7_75t_L
*I *2595:B1 I *L 0.0004 *D AO22x1_ASAP7_75t_L
*I *2698:QN O *L 0.0000 *D DFFHQNx1_ASAP7_75t_L

*CAP
1 *3346:A 0
2 *2794:A1 0
3 *3178:A 0
4 *2595:B1 0

*RES
1 *2698:QN *3346:A 0
2 *2698:QN *2794:A1 0
3 *2698:QN *3178:A 0
4 *2698:QN *2595:B1 0
*END

*D_NET *379 0.000000

*CONN
*I *2795:A1 I *L 0.0006 *D A2O1A1Ixp33_ASAP7_75t_L
*I *3092:A I *L 0.0010 *D XNOR2xp5_ASAP7_75t_L
*I *3289:A I *L 0.0006 *D INVx1_ASAP7_75t_L
*I *2590:B1 I *L 0.0004 *D AO22x1_ASAP7_75t_L
*I *2699:QN O *L 0.0000 *D DFFHQNx1_ASAP7_75t_L

*CAP
1 *2795:A1 0
2 *3092:A 0
3 *3289:A 0
4 *2590:B1 0

*RES
1 *2699:QN *2795:A1 0
2 *2699:QN *3092:A 0
3 *2699:QN *3289:A 0
4 *2699:QN *2590:B1 0
*END

*D_NET *380 0.000000

*CONN
*I *3342:A I *L 0.0010 *D XOR2xp5_ASAP7_75t_L
*I *2796:A1 I *L 0.0006 *D A2O1A1Ixp33_ASAP7_75t_L
*I *3099:A I *L 0.0005 *D NAND2xp5_ASAP7_75t_L
*I *2588:B1 I *L 0.0004 *D AO22x1_ASAP7_75t_L
*I *2700:QN O *L 0.0000 *D DFFHQNx1_ASAP7_75t_L

*CAP
1 *3342:A 0
2 *2796:A1 0
3 *3099:A 0
4 *2588:B1 0

*RES
1 *2700:QN *3342:A 0
2 *2700:QN *2796:A1 0
3 *2700:QN *3099:A 0
4 *2700:QN *2588:B1 0
*END

*D_NET *381 0.000000

*CONN
*I *2797:A1 I *L 0.0006 *D A2O1A1Ixp33_ASAP7_75t_L
*I *2997:A I *L 0.0010 *D XNOR2xp5_ASAP7_75t_L
*I *3279:A I *L 0.0006 *D INVx1_ASAP7_75t_L
*I *2594:B1 I *L 0.0004 *D AO22x1_ASAP7_75t_L
*I *2701:QN O *L 0.0000 *D DFFHQNx1_ASAP7_75t_L

*CAP
1 *2797:A1 0
2 *2997:A 0
3 *3279:A 0
4 *2594:B1 0

*RES
1 *2701:QN *2797:A1 0
2 *2701:QN *2997:A 0
3 *2701:QN *3279:A 0
4 *2701:QN *2594:B1 0
*END

*D_NET *382 0.000000

*CONN
*I *3340:A I *L 0.0010 *D XOR2xp5_ASAP7_75t_L
*I *2798:A1 I *L 0.0006 *D A2O1A1Ixp33_ASAP7_75t_L
*I *2968:A I *L 0.0005 *D NAND2xp5_ASAP7_75t_L
*I *2586:B1 I *L 0.0004 *D AO22x1_ASAP7_75t_L
*I *2702:QN O *L 0.0000 *D DFFHQNx1_ASAP7_75t_L

*CAP
1 *3340:A 0
2 *2798:A1 0
3 *2968:A 0
4 *2586:B1 0

*RES
1 *2702:QN *3340:A 0
2 *2702:QN *2798:A1 0
3 *2702:QN *2968:A 0
4 *2702:QN *2586:B1 0
*END

*D_NET *383 0.000000

*CONN
*I *2784:A1 I *L 0.0006 *D A2O1A1Ixp33_ASAP7_75t_L
*I *2917:A I *L 0.0010 *D XNOR2xp5_ASAP7_75t_L
*I *3276:A I *L 0.0006 *D INVx1_ASAP7_75t_L
*I *2591:B1 I *L 0.0004 *D AO22x1_ASAP7_75t_L
*I *2703:QN O *L 0.0000 *D DFFHQNx1_ASAP7_75t_L

*CAP
1 *2784:A1 0
2 *2917:A 0
3 *3276:A 0
4 *2591:B1 0

*RES
1 *2703:QN *2784:A1 0
2 *2703:QN *2917:A 0
3 *2703:QN *3276:A 0
4 *2703:QN *2591:B1 0
*END

*D_NET *384 0.000000

*CONN
*I *3338:A I *L 0.0010 *D XOR2xp5_ASAP7_75t_L
*I *2777:A1 I *L 0.0006 *D A2O1A1Ixp33_ASAP7_75t_L
*I *2888:A I *L 0.0005 *D NAND2xp5_ASAP7_75t_L
*I *2545:A1 I *L 0.0004 *D AO22x1_ASAP7_75t_L
*I *2704:QN O *L 0.0000 *D DFFHQNx1_ASAP7_75t_L

*CAP
1 *3338:A 0
2 *2777:A1 0
3 *2888:A 0
4 *2545:A1 0

*RES
1 *2704:QN *3338:A 0
2 *2704:QN *2777:A1 0
3 *2704:QN *2888:A 0
4 *2704:QN *2545:A1 0
*END

*D_NET *385 0.000000

*CONN
*I *2772:A1 I *L 0.0006 *D A2O1A1Ixp33_ASAP7_75t_L
*I *2845:A I *L 0.0010 *D XNOR2xp5_ASAP7_75t_L
*I *3283:A I *L 0.0006 *D INVx1_ASAP7_75t_L
*I *2544:A1 I *L 0.0004 *D AO22x1_ASAP7_75t_L
*I *2705:QN O *L 0.0000 *D DFFHQNx1_ASAP7_75t_L

*CAP
1 *2772:A1 0
2 *2845:A 0
3 *3283:A 0
4 *2544:A1 0

*RES
1 *2705:QN *2772:A1 0
2 *2705:QN *2845:A 0
3 *2705:QN *3283:A 0
4 *2705:QN *2544:A1 0
*END

*D_NET *386 0.000000

*CONN
*I *3335:A I *L 0.0010 *D XOR2xp5_ASAP7_75t_L
*I *2767:A1 I *L 0.0006 *D A2O1A1Ixp33_ASAP7_75t_L
*I *2833:A I *L 0.0005 *D NAND2xp5_ASAP7_75t_L
*I *2543:A1 I *L 0.0004 *D AO22x1_ASAP7_75t_L
*I *2706:QN O *L 0.0000 *D DFFHQNx1_ASAP7_75t_L

*CAP
1 *3335:A 0
2 *2767:A1 0
3 *2833:A 0
4 *2543:A1 0

*RES
1 *2706:QN *3335:A 0
2 *2706:QN *2767:A1 0
3 *2706:QN *2833:A 0
4 *2706:QN *2543:A1 0
*END

*D_NET *387 0.000000

*CONN
*I *2765:A1 I *L 0.0006 *D A2O1A1Ixp33_ASAP7_75t_L
*I *2802:A I *L 0.0010 *D XNOR2xp5_ASAP7_75t_L
*I *2542:A1 I *L 0.0004 *D AO22x1_ASAP7_75t_L
*I *2707:QN O *L 0.0000 *D DFFHQNx1_ASAP7_75t_L

*CAP
1 *2765:A1 0
2 *2802:A 0
3 *2542:A1 0

*RES
1 *2707:QN *2765:A1 0
2 *2707:QN *2802:A 0
3 *2707:QN *2542:A1 0
*END

*D_NET *388 0.000000

*CONN
*I *3034:A1 I *L 0.0006 *D A2O1A1Ixp33_ASAP7_75t_L
*I *2582:B1 I *L 0.0004 *D AO22x1_ASAP7_75t_L
*I *2728:QN O *L 0.0000 *D DFFHQNx1_ASAP7_75t_L

*CAP
1 *3034:A1 0
2 *2582:B1 0

*RES
1 *2728:QN *3034:A1 0
2 *2728:QN *2582:B1 0
*END

*D_NET *389 0.000000

*CONN
*I *3035:A1 I *L 0.0006 *D A2O1A1Ixp33_ASAP7_75t_L
*I *2581:B1 I *L 0.0004 *D AO22x1_ASAP7_75t_L
*I *2729:QN O *L 0.0000 *D DFFHQNx1_ASAP7_75t_L

*CAP
1 *3035:A1 0
2 *2581:B1 0

*RES
1 *2729:QN *3035:A1 0
2 *2729:QN *2581:B1 0
*END

*D_NET *390 0.000000

*CONN
*I *3036:A1 I *L 0.0006 *D A2O1A1Ixp33_ASAP7_75t_L
*I *2579:B1 I *L 0.0004 *D AO22x1_ASAP7_75t_L
*I *2730:QN O *L 0.0000 *D DFFHQNx1_ASAP7_75t_L

*CAP
1 *3036:A1 0
2 *2579:B1 0

*RES
1 *2730:QN *3036:A1 0
2 *2730:QN *2579:B1 0
*END

*D_NET *391 0.000000

*CONN
*I *3037:A1 I *L 0.0006 *D A2O1A1Ixp33_ASAP7_75t_L
*I *2577:B1 I *L 0.0004 *D AO22x1_ASAP7_75t_L
*I *2731:QN O *L 0.0000 *D DFFHQNx1_ASAP7_75t_L

*CAP
1 *3037:A1 0
2 *2577:B1 0

*RES
1 *2731:QN *3037:A1 0
2 *2731:QN *2577:B1 0
*END

*D_NET *392 0.000000

*CONN
*I *3038:A1 I *L 0.0006 *D A2O1A1Ixp33_ASAP7_75t_L
*I *2576:B1 I *L 0.0004 *D AO22x1_ASAP7_75t_L
*I *2732:QN O *L 0.0000 *D DFFHQNx1_ASAP7_75t_L

*CAP
1 *3038:A1 0
2 *2576:B1 0

*RES
1 *2732:QN *3038:A1 0
2 *2732:QN *2576:B1 0
*END

*D_NET *393 0.000000

*CONN
*I *3028:A1 I *L 0.0006 *D A2O1A1Ixp33_ASAP7_75t_L
*I *2575:B1 I *L 0.0004 *D AO22x1_ASAP7_75t_L
*I *2733:QN O *L 0.0000 *D DFFHQNx1_ASAP7_75t_L

*CAP
1 *3028:A1 0
2 *2575:B1 0

*RES
1 *2733:QN *3028:A1 0
2 *2733:QN *2575:B1 0
*END

*D_NET *394 0.000000

*CONN
*I *3039:A1 I *L 0.0006 *D A2O1A1Ixp33_ASAP7_75t_L
*I *2572:B1 I *L 0.0004 *D AO22x1_ASAP7_75t_L
*I *2734:QN O *L 0.0000 *D DFFHQNx1_ASAP7_75t_L

*CAP
1 *3039:A1 0
2 *2572:B1 0

*RES
1 *2734:QN *3039:A1 0
2 *2734:QN *2572:B1 0
*END

*D_NET *395 0.000000

*CONN
*I *3040:A1 I *L 0.0006 *D A2O1A1Ixp33_ASAP7_75t_L
*I *2571:B1 I *L 0.0004 *D AO22x1_ASAP7_75t_L
*I *2735:QN O *L 0.0000 *D DFFHQNx1_ASAP7_75t_L

*CAP
1 *3040:A1 0
2 *2571:B1 0

*RES
1 *2735:QN *3040:A1 0
2 *2735:QN *2571:B1 0
*END

*D_NET *396 0.000000

*CONN
*I *3041:A1 I *L 0.0006 *D A2O1A1Ixp33_ASAP7_75t_L
*I *2585:B1 I *L 0.0004 *D AO22x1_ASAP7_75t_L
*I *2736:QN O *L 0.0000 *D DFFHQNx1_ASAP7_75t_L

*CAP
1 *3041:A1 0
2 *2585:B1 0

*RES
1 *2736:QN *3041:A1 0
2 *2736:QN *2585:B1 0
*END

*D_NET *397 0.000000

*CONN
*I *3043:A1 I *L 0.0006 *D A2O1A1Ixp33_ASAP7_75t_L
*I *2568:B1 I *L 0.0004 *D AO22x1_ASAP7_75t_L
*I *2737:QN O *L 0.0000 *D DFFHQNx1_ASAP7_75t_L

*CAP
1 *3043:A1 0
2 *2568:B1 0

*RES
1 *2737:QN *3043:A1 0
2 *2737:QN *2568:B1 0
*END

*D_NET *398 0.000000

*CONN
*I *3044:A1 I *L 0.0006 *D A2O1A1Ixp33_ASAP7_75t_L
*I *2567:B1 I *L 0.0004 *D AO22x1_ASAP7_75t_L
*I *2738:QN O *L 0.0000 *D DFFHQNx1_ASAP7_75t_L

*CAP
1 *3044:A1 0
2 *2567:B1 0

*RES
1 *2738:QN *3044:A1 0
2 *2738:QN *2567:B1 0
*END

*D_NET *399 0.000000

*CONN
*I *3033:A1 I *L 0.0006 *D A2O1A1Ixp33_ASAP7_75t_L
*I *2566:B1 I *L 0.0004 *D AO22x1_ASAP7_75t_L
*I *2739:QN O *L 0.0000 *D DFFHQNx1_ASAP7_75t_L

*CAP
1 *3033:A1 0
2 *2566:B1 0

*RES
1 *2739:QN *3033:A1 0
2 *2739:QN *2566:B1 0
*END

*D_NET *400 0.000000

*CONN
*I *3045:A1 I *L 0.0006 *D A2O1A1Ixp33_ASAP7_75t_L
*I *2563:B1 I *L 0.0004 *D AO22x1_ASAP7_75t_L
*I *2740:QN O *L 0.0000 *D DFFHQNx1_ASAP7_75t_L

*CAP
1 *3045:A1 0
2 *2563:B1 0

*RES
1 *2740:QN *3045:A1 0
2 *2740:QN *2563:B1 0
*END

*D_NET *401 0.000000

*CONN
*I *3046:A1 I *L 0.0006 *D A2O1A1Ixp33_ASAP7_75t_L
*I *2562:B1 I *L 0.0004 *D AO22x1_ASAP7_75t_L
*I *2741:QN O *L 0.0000 *D DFFHQNx1_ASAP7_75t_L

*CAP
1 *3046:A1 0
2 *2562:B1 0

*RES
1 *2741:QN *3046:A1 0
2 *2741:QN *2562:B1 0
*END

*D_NET *402 0.000000

*CONN
*I *3047:A1 I *L 0.0006 *D A2O1A1Ixp33_ASAP7_75t_L
*I *2561:B1 I *L 0.0004 *D AO22x1_ASAP7_75t_L
*I *2742:QN O *L 0.0000 *D DFFHQNx1_ASAP7_75t_L

*CAP
1 *3047:A1 0
2 *2561:B1 0

*RES
1 *2742:QN *3047:A1 0
2 *2742:QN *2561:B1 0
*END

*D_NET *403 0.000000

*CONN
*I *3048:A1 I *L 0.0006 *D A2O1A1Ixp33_ASAP7_75t_L
*I *2559:B1 I *L 0.0004 *D AO22x1_ASAP7_75t_L
*I *2743:QN O *L 0.0000 *D DFFHQNx1_ASAP7_75t_L

*CAP
1 *3048:A1 0
2 *2559:B1 0

*RES
1 *2743:QN *3048:A1 0
2 *2743:QN *2559:B1 0
*END

*D_NET *404 0.000000

*CONN
*I *3026:A1 I *L 0.0006 *D A2O1A1Ixp33_ASAP7_75t_L
*I *2558:B1 I *L 0.0004 *D AO22x1_ASAP7_75t_L
*I *2744:QN O *L 0.0000 *D DFFHQNx1_ASAP7_75t_L

*CAP
1 *3026:A1 0
2 *2558:B1 0

*RES
1 *2744:QN *3026:A1 0
2 *2744:QN *2558:B1 0
*END

*D_NET *405 0.000000

*CONN
*I *3049:A1 I *L 0.0006 *D A2O1A1Ixp33_ASAP7_75t_L
*I *2557:B1 I *L 0.0004 *D AO22x1_ASAP7_75t_L
*I *2745:QN O *L 0.0000 *D DFFHQNx1_ASAP7_75t_L

*CAP
1 *3049:A1 0
2 *2557:B1 0

*RES
1 *2745:QN *3049:A1 0
2 *2745:QN *2557:B1 0
*END

*D_NET *406 0.000000

*CONN
*I *3027:A1 I *L 0.0006 *D A2O1A1Ixp33_ASAP7_75t_L
*I *2570:B1 I *L 0.0004 *D AO22x1_ASAP7_75t_L
*I *2746:QN O *L 0.0000 *D DFFHQNx1_ASAP7_75t_L

*CAP
1 *3027:A1 0
2 *2570:B1 0

*RES
1 *2746:QN *3027:A1 0
2 *2746:QN *2570:B1 0
*END

*D_NET *407 0.000000

*CONN
*I *3050:A1 I *L 0.0006 *D A2O1A1Ixp33_ASAP7_75t_L
*I *2584:B1 I *L 0.0004 *D AO22x1_ASAP7_75t_L
*I *2747:QN O *L 0.0000 *D DFFHQNx1_ASAP7_75t_L

*CAP
1 *3050:A1 0
2 *2584:B1 0

*RES
1 *2747:QN *3050:A1 0
2 *2747:QN *2584:B1 0
*END

*D_NET *408 0.000000

*CONN
*I *3057:A1 I *L 0.0006 *D A2O1A1Ixp33_ASAP7_75t_L
*I *2583:B1 I *L 0.0004 *D AO22x1_ASAP7_75t_L
*I *2748:QN O *L 0.0000 *D DFFHQNx1_ASAP7_75t_L

*CAP
1 *3057:A1 0
2 *2583:B1 0

*RES
1 *2748:QN *3057:A1 0
2 *2748:QN *2583:B1 0
*END

*D_NET *409 0.000000

*CONN
*I *3042:A1 I *L 0.0006 *D A2O1A1Ixp33_ASAP7_75t_L
*I *2580:B1 I *L 0.0004 *D AO22x1_ASAP7_75t_L
*I *2749:QN O *L 0.0000 *D DFFHQNx1_ASAP7_75t_L

*CAP
1 *3042:A1 0
2 *2580:B1 0

*RES
1 *2749:QN *3042:A1 0
2 *2749:QN *2580:B1 0
*END

*D_NET *410 0.000000

*CONN
*I *3051:A1 I *L 0.0006 *D A2O1A1Ixp33_ASAP7_75t_L
*I *2578:B1 I *L 0.0004 *D AO22x1_ASAP7_75t_L
*I *2750:QN O *L 0.0000 *D DFFHQNx1_ASAP7_75t_L

*CAP
1 *3051:A1 0
2 *2578:B1 0

*RES
1 *2750:QN *3051:A1 0
2 *2750:QN *2578:B1 0
*END

*D_NET *411 0.000000

*CONN
*I *3052:A1 I *L 0.0006 *D A2O1A1Ixp33_ASAP7_75t_L
*I *2574:B1 I *L 0.0004 *D AO22x1_ASAP7_75t_L
*I *2751:QN O *L 0.0000 *D DFFHQNx1_ASAP7_75t_L

*CAP
1 *3052:A1 0
2 *2574:B1 0

*RES
1 *2751:QN *3052:A1 0
2 *2751:QN *2574:B1 0
*END

*D_NET *412 0.000000

*CONN
*I *3058:A1 I *L 0.0006 *D A2O1A1Ixp33_ASAP7_75t_L
*I *2554:B1 I *L 0.0004 *D AO22x1_ASAP7_75t_L
*I *2752:QN O *L 0.0000 *D DFFHQNx1_ASAP7_75t_L

*CAP
1 *3058:A1 0
2 *2554:B1 0

*RES
1 *2752:QN *3058:A1 0
2 *2752:QN *2554:B1 0
*END

*D_NET *413 0.000000

*CONN
*I *3053:A1 I *L 0.0006 *D A2O1A1Ixp33_ASAP7_75t_L
*I *2565:B1 I *L 0.0004 *D AO22x1_ASAP7_75t_L
*I *2753:QN O *L 0.0000 *D DFFHQNx1_ASAP7_75t_L

*CAP
1 *3053:A1 0
2 *2565:B1 0

*RES
1 *2753:QN *3053:A1 0
2 *2753:QN *2565:B1 0
*END

*D_NET *414 0.000000

*CONN
*I *3029:A1 I *L 0.0006 *D A2O1A1Ixp33_ASAP7_75t_L
*I *2564:B1 I *L 0.0004 *D AO22x1_ASAP7_75t_L
*I *2754:QN O *L 0.0000 *D DFFHQNx1_ASAP7_75t_L

*CAP
1 *3029:A1 0
2 *2564:B1 0

*RES
1 *2754:QN *3029:A1 0
2 *2754:QN *2564:B1 0
*END

*D_NET *415 0.000000

*CONN
*I *3054:A1 I *L 0.0006 *D A2O1A1Ixp33_ASAP7_75t_L
*I *2560:B1 I *L 0.0004 *D AO22x1_ASAP7_75t_L
*I *2755:QN O *L 0.0000 *D DFFHQNx1_ASAP7_75t_L

*CAP
1 *3054:A1 0
2 *2560:B1 0

*RES
1 *2755:QN *3054:A1 0
2 *2755:QN *2560:B1 0
*END

*D_NET *416 0.000000

*CONN
*I *3030:A1 I *L 0.0006 *D A2O1A1Ixp33_ASAP7_75t_L
*I *2556:B1 I *L 0.0004 *D AO22x1_ASAP7_75t_L
*I *2756:QN O *L 0.0000 *D DFFHQNx1_ASAP7_75t_L

*CAP
1 *3030:A1 0
2 *2556:B1 0

*RES
1 *2756:QN *3030:A1 0
2 *2756:QN *2556:B1 0
*END

*D_NET *417 0.000000

*CONN
*I *3055:A1 I *L 0.0006 *D A2O1A1Ixp33_ASAP7_75t_L
*I *2555:B1 I *L 0.0004 *D AO22x1_ASAP7_75t_L
*I *2757:QN O *L 0.0000 *D DFFHQNx1_ASAP7_75t_L

*CAP
1 *3055:A1 0
2 *2555:B1 0

*RES
1 *2757:QN *3055:A1 0
2 *2757:QN *2555:B1 0
*END

*D_NET *418 0.000000

*CONN
*I *3074:A1 I *L 0.0006 *D A2O1A1Ixp33_ASAP7_75t_L
*I *2573:B1 I *L 0.0004 *D AO22x1_ASAP7_75t_L
*I *2758:QN O *L 0.0000 *D DFFHQNx1_ASAP7_75t_L

*CAP
1 *3074:A1 0
2 *2573:B1 0

*RES
1 *2758:QN *3074:A1 0
2 *2758:QN *2573:B1 0
*END

*D_NET *419 0.000000

*CONN
*I *3056:A1 I *L 0.0006 *D A2O1A1Ixp33_ASAP7_75t_L
*I *2569:B1 I *L 0.0004 *D AO22x1_ASAP7_75t_L
*I *2759:QN O *L 0.0000 *D DFFHQNx1_ASAP7_75t_L

*CAP
1 *3056:A1 0
2 *2569:B1 0

*RES
1 *2759:QN *3056:A1 0
2 *2759:QN *2569:B1 0
*END

*D_NET *420 0.000000

*CONN
*I *3060:A1 I *L 0.0006 *D A2O1A1Ixp33_ASAP7_75t_L
*I *2604:A I *L 0.0006 *D INVx1_ASAP7_75t_L
*I *2601:A I *L 0.0003 *D NOR2xp33_ASAP7_75t_L
*I *2760:QN O *L 0.0000 *D DFFHQNx1_ASAP7_75t_L

*CAP
1 *3060:A1 0
2 *2604:A 0
3 *2601:A 0

*RES
1 *2760:QN *3060:A1 0
2 *2760:QN *2604:A 0
3 *2760:QN *2601:A 0
*END

*D_NET *421 0.000000

*CONN
*I *3031:A1 I *L 0.0006 *D A2O1A1Ixp33_ASAP7_75t_L
*I *2607:A I *L 0.0006 *D INVx1_ASAP7_75t_L
*I *2602:A I *L 0.0003 *D NOR2xp33_ASAP7_75t_L
*I *2761:QN O *L 0.0000 *D DFFHQNx1_ASAP7_75t_L

*CAP
1 *3031:A1 0
2 *2607:A 0
3 *2602:A 0

*RES
1 *2761:QN *3031:A1 0
2 *2761:QN *2607:A 0
3 *2761:QN *2602:A 0
*END

*D_NET *422 0.000000

*CONN
*I *3032:A1 I *L 0.0006 *D A2O1A1Ixp33_ASAP7_75t_L
*I *2605:A I *L 0.0006 *D INVx1_ASAP7_75t_L
*I *2600:A I *L 0.0003 *D NOR2xp33_ASAP7_75t_L
*I *2762:QN O *L 0.0000 *D DFFHQNx1_ASAP7_75t_L

*CAP
1 *3032:A1 0
2 *2605:A 0
3 *2600:A 0

*RES
1 *2762:QN *3032:A1 0
2 *2762:QN *2605:A 0
3 *2762:QN *2600:A 0
*END

*D_NET *423 0.000000

*CONN
*I *3025:A1 I *L 0.0006 *D A2O1A1Ixp33_ASAP7_75t_L
*I *2606:A I *L 0.0006 *D INVx1_ASAP7_75t_L
*I *2603:A I *L 0.0003 *D NOR2xp33_ASAP7_75t_L
*I *2763:QN O *L 0.0000 *D DFFHQNx1_ASAP7_75t_L

*CAP
1 *3025:A1 0
2 *2606:A 0
3 *2603:A 0

*RES
1 *2763:QN *3025:A1 0
2 *2763:QN *2606:A 0
3 *2763:QN *2603:A 0
*END

*D_NET *424 0.000000

*CONN
*I *3348:B I *L 0.0009 *D HAxp5_ASAP7_75t_L
*I *3230:A I *L 0.0010 *D XOR2xp5_ASAP7_75t_L
*I *2924:A1 I *L 0.0006 *D A2O1A1Ixp33_ASAP7_75t_L
*I *3012:C I *L 0.0005 *D NOR3xp33_ASAP7_75t_L
*I *2623:QN O *L 0.0000 *D DFFHQNx1_ASAP7_75t_L

*CAP
1 *3348:B 0
2 *3230:A 0
3 *2924:A1 0
4 *3012:C 0

*RES
1 *2623:QN *3348:B 0
2 *2623:QN *3230:A 0
3 *2623:QN *2924:A1 0
4 *2623:QN *3012:C 0
*END

*D_NET *425 0.000000

*CONN
*I *3348:A I *L 0.0010 *D HAxp5_ASAP7_75t_L
*I *3247:A I *L 0.0010 *D XOR2xp5_ASAP7_75t_L
*I *2931:A1 I *L 0.0006 *D A2O1A1Ixp33_ASAP7_75t_L
*I *2624:QN O *L 0.0000 *D DFFHQNx1_ASAP7_75t_L

*CAP
1 *3348:A 0
2 *3247:A 0
3 *2931:A1 0

*RES
1 *2624:QN *3348:A 0
2 *2624:QN *3247:A 0
3 *2624:QN *2931:A1 0
*END

*D_NET *426 0.000000

*CONN
*I *3347:A I *L 0.0010 *D HAxp5_ASAP7_75t_L
*I *3248:A I *L 0.0010 *D XNOR2xp5_ASAP7_75t_L
*I *2925:A1 I *L 0.0006 *D A2O1A1Ixp33_ASAP7_75t_L
*I *2625:QN O *L 0.0000 *D DFFHQNx1_ASAP7_75t_L

*CAP
1 *3347:A 0
2 *3248:A 0
3 *2925:A1 0

*RES
1 *2625:QN *3347:A 0
2 *2625:QN *3248:A 0
3 *2625:QN *2925:A1 0
*END

*D_NET *427 0.000000

*CONN
*I *2923:A1 I *L 0.0006 *D A2O1A1Ixp33_ASAP7_75t_L
*I *3210:B2 I *L 0.0005 *D OAI221xp5_ASAP7_75t_L
*I *3290:A I *L 0.0006 *D INVx1_ASAP7_75t_L
*I *2626:QN O *L 0.0000 *D DFFHQNx1_ASAP7_75t_L

*CAP
1 *2923:A1 0
2 *3210:B2 0
3 *3290:A 0

*RES
1 *2626:QN *2923:A1 0
2 *2626:QN *3210:B2 0
3 *2626:QN *3290:A 0
*END

*D_NET *428 0.000000

*CONN
*I *3246:A I *L 0.0010 *D XNOR2xp5_ASAP7_75t_L
*I *3181:A I *L 0.0005 *D NAND2xp5_ASAP7_75t_L
*I *2926:A1 I *L 0.0006 *D A2O1A1Ixp33_ASAP7_75t_L
*I *3114:A1 I *L 0.0006 *D OAI21xp5_ASAP7_75t_L
*I *2627:QN O *L 0.0000 *D DFFHQNx1_ASAP7_75t_L

*CAP
1 *3246:A 0
2 *3181:A 0
3 *2926:A1 0
4 *3114:A1 0

*RES
1 *2627:QN *3246:A 0
2 *2627:QN *3181:A 0
3 *2627:QN *2926:A1 0
4 *2627:QN *3114:A1 0
*END

*D_NET *429 0.000000

*CONN
*I *3206:A2 I *L 0.0005 *D AOI221xp5_ASAP7_75t_L
*I *2904:A1 I *L 0.0006 *D A2O1A1Ixp33_ASAP7_75t_L
*I *3097:A I *L 0.0010 *D XOR2xp5_ASAP7_75t_L
*I *3295:A I *L 0.0006 *D INVx1_ASAP7_75t_L
*I *2628:QN O *L 0.0000 *D DFFHQNx1_ASAP7_75t_L

*CAP
1 *3206:A2 0
2 *2904:A1 0
3 *3097:A 0
4 *3295:A 0

*RES
1 *2628:QN *3206:A2 0
2 *2628:QN *2904:A1 0
3 *2628:QN *3097:A 0
4 *2628:QN *3295:A 0
*END

*D_NET *430 0.000000

*CONN
*I *3227:A I *L 0.0010 *D XOR2xp5_ASAP7_75t_L
*I *3098:A I *L 0.0005 *D NAND2xp5_ASAP7_75t_L
*I *2860:A1 I *L 0.0006 *D A2O1A1Ixp33_ASAP7_75t_L
*I *3013:A1 I *L 0.0006 *D OAI21xp5_ASAP7_75t_L
*I *2629:QN O *L 0.0000 *D DFFHQNx1_ASAP7_75t_L

*CAP
1 *3227:A 0
2 *3098:A 0
3 *2860:A1 0
4 *3013:A1 0

*RES
1 *2629:QN *3227:A 0
2 *2629:QN *3098:A 0
3 *2629:QN *2860:A1 0
4 *2629:QN *3013:A1 0
*END

*D_NET *431 0.000000

*CONN
*I *3237:A I *L 0.0010 *D XNOR2xp5_ASAP7_75t_L
*I *2830:A1 I *L 0.0006 *D A2O1A1Ixp33_ASAP7_75t_L
*I *3000:A I *L 0.0010 *D XOR2xp5_ASAP7_75t_L
*I *2630:QN O *L 0.0000 *D DFFHQNx1_ASAP7_75t_L

*CAP
1 *3237:A 0
2 *2830:A1 0
3 *3000:A 0

*RES
1 *2630:QN *3237:A 0
2 *2630:QN *2830:A1 0
3 *2630:QN *3000:A 0
*END

*D_NET *432 0.000000

*CONN
*I *3258:A I *L 0.0005 *D NAND2xp5_ASAP7_75t_L
*I *2809:B3 I *L 0.0005 *D OAI33xp33_ASAP7_75t_L
*I *2960:A1 I *L 0.0006 *D A2O1A1Ixp33_ASAP7_75t_L
*I *3274:A I *L 0.0006 *D INVx1_ASAP7_75t_L
*I *2631:QN O *L 0.0000 *D DFFHQNx1_ASAP7_75t_L

*CAP
1 *3258:A 0
2 *2809:B3 0
3 *2960:A1 0
4 *3274:A 0

*RES
1 *2631:QN *3258:A 0
2 *2631:QN *2809:B3 0
3 *2631:QN *2960:A1 0
4 *2631:QN *3274:A 0
*END

*D_NET *433 0.000000

*CONN
*I *2955:A1 I *L 0.0006 *D A2O1A1Ixp33_ASAP7_75t_L
*I *3091:C I *L 0.0005 *D NAND3xp33_ASAP7_75t_L
*I *2637:QN O *L 0.0000 *D DFFHQNx1_ASAP7_75t_L

*CAP
1 *2955:A1 0
2 *3091:C 0

*RES
1 *2637:QN *2955:A1 0
2 *2637:QN *3091:C 0
*END

*D_NET *434 0.000000

*CONN
*I *2943:A1 I *L 0.0006 *D A2O1A1Ixp33_ASAP7_75t_L
*I *3230:B I *L 0.0010 *D XOR2xp5_ASAP7_75t_L
*I *2638:QN O *L 0.0000 *D DFFHQNx1_ASAP7_75t_L

*CAP
1 *2943:A1 0
2 *3230:B 0

*RES
1 *2638:QN *2943:A1 0
2 *2638:QN *3230:B 0
*END

*D_NET *435 0.000000

*CONN
*I *3113:B2 I *L 0.0005 *D OAI221xp5_ASAP7_75t_L
*I *3247:B I *L 0.0010 *D XOR2xp5_ASAP7_75t_L
*I *3293:A I *L 0.0006 *D INVx1_ASAP7_75t_L
*I *2639:QN O *L 0.0000 *D DFFHQNx1_ASAP7_75t_L

*CAP
1 *3113:B2 0
2 *3247:B 0
3 *3293:A 0

*RES
1 *2639:QN *3113:B2 0
2 *2639:QN *3247:B 0
3 *2639:QN *3293:A 0
*END

*D_NET *436 0.000000

*CONN
*I *3089:A1 I *L 0.0005 *D OAI211xp5_ASAP7_75t_L
*I *3167:A I *L 0.0005 *D NAND2xp5_ASAP7_75t_L
*I *3285:A I *L 0.0006 *D INVx1_ASAP7_75t_L
*I *2640:QN O *L 0.0000 *D DFFHQNx1_ASAP7_75t_L

*CAP
1 *3089:A1 0
2 *3167:A 0
3 *3285:A 0

*RES
1 *2640:QN *3089:A1 0
2 *2640:QN *3167:A 0
3 *2640:QN *3285:A 0
*END

*D_NET *437 0.000000

*CONN
*I *3079:A I *L 0.0010 *D XNOR2xp5_ASAP7_75t_L
*I *3210:A2 I *L 0.0005 *D OAI221xp5_ASAP7_75t_L
*I *3278:A I *L 0.0006 *D INVx1_ASAP7_75t_L
*I *2641:QN O *L 0.0000 *D DFFHQNx1_ASAP7_75t_L

*CAP
1 *3079:A 0
2 *3210:A2 0
3 *3278:A 0

*RES
1 *2641:QN *3079:A 0
2 *2641:QN *3210:A2 0
3 *2641:QN *3278:A 0
*END

*D_NET *438 0.000000

*CONN
*I *3009:A I *L 0.0010 *D XNOR2xp5_ASAP7_75t_L
*I *3288:A I *L 0.0006 *D INVx1_ASAP7_75t_L
*I *2642:QN O *L 0.0000 *D DFFHQNx1_ASAP7_75t_L

*CAP
1 *3009:A 0
2 *3288:A 0

*RES
1 *2642:QN *3009:A 0
2 *2642:QN *3288:A 0
*END

*D_NET *439 0.000000

*CONN
*I *2996:A I *L 0.0010 *D XNOR2xp5_ASAP7_75t_L
*I *3206:B2 I *L 0.0005 *D AOI221xp5_ASAP7_75t_L
*I *3277:A I *L 0.0006 *D INVx1_ASAP7_75t_L
*I *2643:QN O *L 0.0000 *D DFFHQNx1_ASAP7_75t_L

*CAP
1 *2996:A 0
2 *3206:B2 0
3 *3277:A 0

*RES
1 *2643:QN *2996:A 0
2 *2643:QN *3206:B2 0
3 *2643:QN *3277:A 0
*END

*D_NET *440 0.000000

*CONN
*I *2930:A I *L 0.0010 *D XOR2xp5_ASAP7_75t_L
*I *3286:A I *L 0.0006 *D INVx1_ASAP7_75t_L
*I *2644:QN O *L 0.0000 *D DFFHQNx1_ASAP7_75t_L

*CAP
1 *2930:A 0
2 *3286:A 0

*RES
1 *2644:QN *2930:A 0
2 *2644:QN *3286:A 0
*END

*D_NET *441 0.000000

*CONN
*I *2890:A I *L 0.0010 *D XOR2xp5_ASAP7_75t_L
*I *3281:A I *L 0.0006 *D INVx1_ASAP7_75t_L
*I *2645:QN O *L 0.0000 *D DFFHQNx1_ASAP7_75t_L

*CAP
1 *2890:A 0
2 *3281:A 0

*RES
1 *2645:QN *2890:A 0
2 *2645:QN *3281:A 0
*END

*D_NET *442 0.000000

*CONN
*I *3350:A I *L 0.0010 *D HAxp5_ASAP7_75t_L
*I *3265:B I *L 0.0004 *D NOR2xp33_ASAP7_75t_L
*I *3211:A2 I *L 0.0006 *D A2O1A1Ixp33_ASAP7_75t_L
*I *2812:A1 I *L 0.0006 *D A2O1A1Ixp33_ASAP7_75t_L
*I *2850:C I *L 0.0005 *D NOR3xp33_ASAP7_75t_L
*I *2708:QN O *L 0.0000 *D DFFHQNx1_ASAP7_75t_L

*CAP
1 *3350:A 0
2 *3265:B 0
3 *3211:A2 0
4 *2812:A1 0
5 *2850:C 0

*RES
1 *2708:QN *3350:A 0
2 *2708:QN *3265:B 0
3 *2708:QN *3211:A2 0
4 *2708:QN *2812:A1 0
5 *2708:QN *2850:C 0
*END

*D_NET *443 0.000000

*CONN
*I *3350:B I *L 0.0009 *D HAxp5_ASAP7_75t_L
*I *3245:B I *L 0.0009 *D XNOR2xp5_ASAP7_75t_L
*I *2813:A1 I *L 0.0006 *D A2O1A1Ixp33_ASAP7_75t_L
*I *2709:QN O *L 0.0000 *D DFFHQNx1_ASAP7_75t_L

*CAP
1 *3350:B 0
2 *3245:B 0
3 *2813:A1 0

*RES
1 *2709:QN *3350:B 0
2 *2709:QN *3245:B 0
3 *2709:QN *2813:A1 0
*END

*D_NET *444 0.000000

*CONN
*I *3352:A I *L 0.0010 *D HAxp5_ASAP7_75t_L
*I *3244:B I *L 0.0010 *D XOR2xp5_ASAP7_75t_L
*I *2817:A1 I *L 0.0006 *D A2O1A1Ixp33_ASAP7_75t_L
*I *2710:QN O *L 0.0000 *D DFFHQNx1_ASAP7_75t_L

*CAP
1 *3352:A 0
2 *3244:B 0
3 *2817:A1 0

*RES
1 *2710:QN *3352:A 0
2 *2710:QN *3244:B 0
3 *2710:QN *2817:A1 0
*END

*D_NET *445 0.000000

*CONN
*I *3243:B I *L 0.0010 *D XOR2xp5_ASAP7_75t_L
*I *2816:A1 I *L 0.0006 *D A2O1A1Ixp33_ASAP7_75t_L
*I *3153:A I *L 0.0010 *D XOR2xp5_ASAP7_75t_L
*I *3300:A I *L 0.0003 *D INVxp33_ASAP7_75t_L
*I *2711:QN O *L 0.0000 *D DFFHQNx1_ASAP7_75t_L

*CAP
1 *3243:B 0
2 *2816:A1 0
3 *3153:A 0
4 *3300:A 0

*RES
1 *2711:QN *3243:B 0
2 *2711:QN *2816:A1 0
3 *2711:QN *3153:A 0
4 *2711:QN *3300:A 0
*END

*D_NET *446 0.000000

*CONN
*I *3209:B2 I *L 0.0005 *D OAI221xp5_ASAP7_75t_L
*I *3177:A I *L 0.0005 *D NAND2xp5_ASAP7_75t_L
*I *2814:A1 I *L 0.0006 *D A2O1A1Ixp33_ASAP7_75t_L
*I *3297:A I *L 0.0006 *D INVx1_ASAP7_75t_L
*I *3345:A I *L 0.0010 *D XNOR2xp5_ASAP7_75t_L
*I *2712:QN O *L 0.0000 *D DFFHQNx1_ASAP7_75t_L

*CAP
1 *3209:B2 0
2 *3177:A 0
3 *2814:A1 0
4 *3297:A 0
5 *3345:A 0

*RES
1 *2712:QN *3209:B2 0
2 *2712:QN *3177:A 0
3 *2712:QN *2814:A1 0
4 *2712:QN *3297:A 0
5 *2712:QN *3345:A 0
*END

*D_NET *447 0.000000

*CONN
*I *3240:B I *L 0.0009 *D XNOR2xp5_ASAP7_75t_L
*I *2818:A1 I *L 0.0006 *D A2O1A1Ixp33_ASAP7_75t_L
*I *3084:A I *L 0.0010 *D XOR2xp5_ASAP7_75t_L
*I *3301:A I *L 0.0003 *D INVxp33_ASAP7_75t_L
*I *2713:QN O *L 0.0000 *D DFFHQNx1_ASAP7_75t_L

*CAP
1 *3240:B 0
2 *2818:A1 0
3 *3084:A 0
4 *3301:A 0

*RES
1 *2713:QN *3240:B 0
2 *2713:QN *2818:A1 0
3 *2713:QN *3084:A 0
4 *2713:QN *3301:A 0
*END

*D_NET *448 0.000000

*CONN
*I *3095:A I *L 0.0005 *D NAND2xp5_ASAP7_75t_L
*I *2819:A1 I *L 0.0006 *D A2O1A1Ixp33_ASAP7_75t_L
*I *3298:A I *L 0.0006 *D INVx1_ASAP7_75t_L
*I *3343:A I *L 0.0010 *D XNOR2xp5_ASAP7_75t_L
*I *2714:QN O *L 0.0000 *D DFFHQNx1_ASAP7_75t_L

*CAP
1 *3095:A 0
2 *2819:A1 0
3 *3298:A 0
4 *3343:A 0

*RES
1 *2714:QN *3095:A 0
2 *2714:QN *2819:A1 0
3 *2714:QN *3298:A 0
4 *2714:QN *3343:A 0
*END

*D_NET *449 0.000000

*CONN
*I *2820:A1 I *L 0.0006 *D A2O1A1Ixp33_ASAP7_75t_L
*I *2998:A I *L 0.0010 *D XOR2xp5_ASAP7_75t_L
*I *3284:A I *L 0.0006 *D INVx1_ASAP7_75t_L
*I *2715:QN O *L 0.0000 *D DFFHQNx1_ASAP7_75t_L

*CAP
1 *2820:A1 0
2 *2998:A 0
3 *3284:A 0

*RES
1 *2715:QN *2820:A1 0
2 *2715:QN *2998:A 0
3 *2715:QN *3284:A 0
*END

*D_NET *450 0.000000

*CONN
*I *3088:A1 I *L 0.0006 *D A2O1A1Ixp33_ASAP7_75t_L
*I *2811:A I *L 0.0005 *D NAND2xp5_ASAP7_75t_L
*I *3015:A I *L 0.0005 *D NAND2xp5_ASAP7_75t_L
*I *3291:A I *L 0.0006 *D INVx1_ASAP7_75t_L
*I *2716:QN O *L 0.0000 *D DFFHQNx1_ASAP7_75t_L

*CAP
1 *3088:A1 0
2 *2811:A 0
3 *3015:A 0
4 *3291:A 0

*RES
1 *2716:QN *3088:A1 0
2 *2716:QN *2811:A 0
3 *2716:QN *3015:A 0
4 *2716:QN *3291:A 0
*END

*D_NET *451 0.000000

*CONN
*I *2839:A1 I *L 0.0006 *D A2O1A1Ixp33_ASAP7_75t_L
*I *3272:A I *L 0.0006 *D INVx1_ASAP7_75t_L
*I *2717:QN O *L 0.0000 *D DFFHQNx1_ASAP7_75t_L

*CAP
1 *2839:A1 0
2 *3272:A 0

*RES
1 *2717:QN *2839:A1 0
2 *2717:QN *3272:A 0
*END

*D_NET *452 0.000000

*CONN
*I *3269:A I *L 0.0003 *D NOR2xp33_ASAP7_75t_L
*I *2932:A1 I *L 0.0006 *D A2O1A1Ixp33_ASAP7_75t_L
*I *3254:A I *L 0.0005 *D NAND2xp5_ASAP7_75t_L
*I *2718:QN O *L 0.0000 *D DFFHQNx1_ASAP7_75t_L

*CAP
1 *3269:A 0
2 *2932:A1 0
3 *3254:A 0

*RES
1 *2718:QN *3269:A 0
2 *2718:QN *2932:A1 0
3 *2718:QN *3254:A 0
*END

*D_NET *453 0.000000

*CONN
*I *2867:A2 I *L 0.0005 *D AOI21xp5_ASAP7_75t_L
*I *3086:A1 I *L 0.0006 *D A2O1A1Ixp33_ASAP7_75t_L
*I *2719:QN O *L 0.0000 *D DFFHQNx1_ASAP7_75t_L

*CAP
1 *2867:A2 0
2 *3086:A1 0

*RES
1 *2719:QN *2867:A2 0
2 *2719:QN *3086:A1 0
*END

*D_NET *454 0.000000

*CONN
*I *3265:A I *L 0.0003 *D NOR2xp33_ASAP7_75t_L
*I *3073:A1 I *L 0.0006 *D A2O1A1Ixp33_ASAP7_75t_L
*I *3211:A1 I *L 0.0006 *D A2O1A1Ixp33_ASAP7_75t_L
*I *2720:QN O *L 0.0000 *D DFFHQNx1_ASAP7_75t_L

*CAP
1 *3265:A 0
2 *3073:A1 0
3 *3211:A1 0

*RES
1 *2720:QN *3265:A 0
2 *2720:QN *3073:A1 0
3 *2720:QN *3211:A1 0
*END

*D_NET *455 0.000000

*CONN
*I *3066:A1 I *L 0.0006 *D A2O1A1Ixp33_ASAP7_75t_L
*I *3245:A I *L 0.0010 *D XNOR2xp5_ASAP7_75t_L
*I *2721:QN O *L 0.0000 *D DFFHQNx1_ASAP7_75t_L

*CAP
1 *3066:A1 0
2 *3245:A 0

*RES
1 *2721:QN *3066:A1 0
2 *2721:QN *3245:A 0
*END

*D_NET *456 0.000000

*CONN
*I *3067:A1 I *L 0.0006 *D A2O1A1Ixp33_ASAP7_75t_L
*I *3244:A I *L 0.0010 *D XOR2xp5_ASAP7_75t_L
*I *2722:QN O *L 0.0000 *D DFFHQNx1_ASAP7_75t_L

*CAP
1 *3067:A1 0
2 *3244:A 0

*RES
1 *2722:QN *3067:A1 0
2 *2722:QN *3244:A 0
*END

*D_NET *457 0.000000

*CONN
*I *3068:A1 I *L 0.0006 *D A2O1A1Ixp33_ASAP7_75t_L
*I *3243:A I *L 0.0010 *D XOR2xp5_ASAP7_75t_L
*I *2723:QN O *L 0.0000 *D DFFHQNx1_ASAP7_75t_L

*CAP
1 *3068:A1 0
2 *3243:A 0

*RES
1 *2723:QN *3068:A1 0
2 *2723:QN *3243:A 0
*END

*D_NET *458 0.000000

*CONN
*I *3069:A1 I *L 0.0006 *D A2O1A1Ixp33_ASAP7_75t_L
*I *3213:B2 I *L 0.0005 *D OAI221xp5_ASAP7_75t_L
*I *3273:A I *L 0.0006 *D INVx1_ASAP7_75t_L
*I *2724:QN O *L 0.0000 *D DFFHQNx1_ASAP7_75t_L

*CAP
1 *3069:A1 0
2 *3213:B2 0
3 *3273:A 0

*RES
1 *2724:QN *3069:A1 0
2 *2724:QN *3213:B2 0
3 *2724:QN *3273:A 0
*END

*D_NET *459 0.000000

*CONN
*I *3070:A1 I *L 0.0006 *D A2O1A1Ixp33_ASAP7_75t_L
*I *3240:A I *L 0.0010 *D XNOR2xp5_ASAP7_75t_L
*I *2725:QN O *L 0.0000 *D DFFHQNx1_ASAP7_75t_L

*CAP
1 *3070:A1 0
2 *3240:A 0

*RES
1 *2725:QN *3070:A1 0
2 *2725:QN *3240:A 0
*END

*D_NET *460 0.000000

*CONN
*I *3228:B1 I *L 0.0006 *D AOI22xp5_ASAP7_75t_L
*I *3071:A1 I *L 0.0006 *D A2O1A1Ixp33_ASAP7_75t_L
*I *3209:A2 I *L 0.0005 *D OAI221xp5_ASAP7_75t_L
*I *2726:QN O *L 0.0000 *D DFFHQNx1_ASAP7_75t_L

*CAP
1 *3228:B1 0
2 *3071:A1 0
3 *3209:A2 0

*RES
1 *2726:QN *3228:B1 0
2 *2726:QN *3071:A1 0
3 *2726:QN *3209:A2 0
*END

*D_NET *461 0.000000

*CONN
*I *3228:A1 I *L 0.0005 *D AOI22xp5_ASAP7_75t_L
*I *3072:A1 I *L 0.0006 *D A2O1A1Ixp33_ASAP7_75t_L
*I *3213:A2 I *L 0.0005 *D OAI221xp5_ASAP7_75t_L
*I *2727:QN O *L 0.0000 *D DFFHQNx1_ASAP7_75t_L

*CAP
1 *3228:A1 0
2 *3072:A1 0
3 *3213:A2 0

*RES
1 *2727:QN *3228:A1 0
2 *2727:QN *3072:A1 0
3 *2727:QN *3213:A2 0
*END

*D_NET *462 0.000000

*CONN
*I *3010:A1 I *L 0.0004 *D AOI22xp33_ASAP7_75t_L
*I *3346:Y O *L 0.0000 *D XOR2xp5_ASAP7_75t_L

*CAP
1 *3010:A1 0

*RES
1 *3346:Y *3010:A1 0
*END

*D_NET *463 0.000000

*CONN
*I *2858:C I *L 0.0005 *D NOR3xp33_ASAP7_75t_L
*I *3345:Y O *L 0.0000 *D XNOR2xp5_ASAP7_75t_L

*CAP
1 *2858:C 0

*RES
1 *3345:Y *2858:C 0
*END

*D_NET *464 0.000000

*CONN
*I *2958:A2 I *L 0.0006 *D O2A1O1Ixp33_ASAP7_75t_L
*I *3344:Y O *L 0.0000 *D XNOR2xp5_ASAP7_75t_L

*CAP
1 *2958:A2 0

*RES
1 *3344:Y *2958:A2 0
*END

*D_NET *465 0.000000

*CONN
*I *2856:C I *L 0.0005 *D NOR3xp33_ASAP7_75t_L
*I *3343:Y O *L 0.0000 *D XNOR2xp5_ASAP7_75t_L

*CAP
1 *2856:C 0

*RES
1 *3343:Y *2856:C 0
*END

*D_NET *466 0.000000

*CONN
*I *2929:A1 I *L 0.0004 *D AOI22xp33_ASAP7_75t_L
*I *3342:Y O *L 0.0000 *D XOR2xp5_ASAP7_75t_L

*CAP
1 *2929:A1 0

*RES
1 *3342:Y *2929:A1 0
*END

*D_NET *467 0.000000

*CONN
*I *2905:A2 I *L 0.0006 *D O2A1O1Ixp33_ASAP7_75t_L
*I *3341:Y O *L 0.0000 *D XNOR2xp5_ASAP7_75t_L

*CAP
1 *2905:A2 0

*RES
1 *3341:Y *2905:A2 0
*END

*D_NET *468 0.000000

*CONN
*I *2851:A1 I *L 0.0004 *D AOI22xp33_ASAP7_75t_L
*I *3340:Y O *L 0.0000 *D XOR2xp5_ASAP7_75t_L

*CAP
1 *2851:A1 0

*RES
1 *3340:Y *2851:A1 0
*END

*D_NET *469 0.000000

*CONN
*I *2838:A1 I *L 0.0006 *D O2A1O1Ixp33_ASAP7_75t_L
*I *3339:Y O *L 0.0000 *D XNOR2xp5_ASAP7_75t_L

*CAP
1 *2838:A1 0

*RES
1 *3339:Y *2838:A1 0
*END

*D_NET *470 0.000000

*CONN
*I *2823:A2 I *L 0.0006 *D AOI22xp5_ASAP7_75t_L
*I *3338:Y O *L 0.0000 *D XOR2xp5_ASAP7_75t_L

*CAP
1 *2823:A2 0

*RES
1 *3338:Y *2823:A2 0
*END

*D_NET *471 0.000000

*CONN
*I *2790:A1 I *L 0.0006 *D O2A1O1Ixp33_ASAP7_75t_L
*I *3337:Y O *L 0.0000 *D XNOR2xp5_ASAP7_75t_L

*CAP
1 *2790:A1 0

*RES
1 *3337:Y *2790:A1 0
*END

*D_NET *472 0.000000

*CONN
*I *2775:A1 I *L 0.0006 *D O2A1O1Ixp33_ASAP7_75t_L
*I *3336:Y O *L 0.0000 *D XNOR2xp5_ASAP7_75t_L

*CAP
1 *2775:A1 0

*RES
1 *3336:Y *2775:A1 0
*END

*D_NET *473 0.000000

*CONN
*I *2785:A2 I *L 0.0006 *D AOI22xp5_ASAP7_75t_L
*I *3335:Y O *L 0.0000 *D XOR2xp5_ASAP7_75t_L

*CAP
1 *2785:A2 0

*RES
1 *3335:Y *2785:A2 0
*END

*D_NET *474 0.000000

*CONN
*I *2790:A2 I *L 0.0006 *D O2A1O1Ixp33_ASAP7_75t_L
*I *2775:A2 I *L 0.0006 *D O2A1O1Ixp33_ASAP7_75t_L
*I *2958:A1 I *L 0.0006 *D O2A1O1Ixp33_ASAP7_75t_L
*I *2838:A2 I *L 0.0006 *D O2A1O1Ixp33_ASAP7_75t_L
*I *2959:A1 I *L 0.0006 *D O2A1O1Ixp33_ASAP7_75t_L
*I *2928:A1 I *L 0.0006 *D O2A1O1Ixp33_ASAP7_75t_L
*I *2957:A1 I *L 0.0006 *D O2A1O1Ixp33_ASAP7_75t_L
*I *3005:B I *L 0.0005 *D NOR3xp33_ASAP7_75t_L
*I *3006:B I *L 0.0005 *D NOR3xp33_ASAP7_75t_L
*I *3012:B I *L 0.0005 *D NOR3xp33_ASAP7_75t_L
*I *2995:B I *L 0.0005 *D NOR3xp33_ASAP7_75t_L
*I *3333:Y O *L 0.0000 *D INVx1_ASAP7_75t_L

*CAP
1 *2790:A2 0
2 *2775:A2 0
3 *2958:A1 0
4 *2838:A2 0
5 *2959:A1 0
6 *2928:A1 0
7 *2957:A1 0
8 *3005:B 0
9 *3006:B 0
10 *3012:B 0
11 *2995:B 0

*RES
1 *3333:Y *2790:A2 0
2 *3333:Y *2775:A2 0
3 *3333:Y *2958:A1 0
4 *3333:Y *2838:A2 0
5 *3333:Y *2959:A1 0
6 *3333:Y *2928:A1 0
7 *3333:Y *2957:A1 0
8 *3333:Y *3005:B 0
9 *3333:Y *3006:B 0
10 *3333:Y *3012:B 0
11 *3333:Y *2995:B 0
*END

*D_NET *475 0.000000

*CONN
*I *2988:C I *L 0.0006 *D AND3x1_ASAP7_75t_L
*I *2969:C I *L 0.0006 *D AND3x1_ASAP7_75t_L
*I *2984:C I *L 0.0006 *D AND3x1_ASAP7_75t_L
*I *2985:C I *L 0.0006 *D AND3x1_ASAP7_75t_L
*I *2980:C I *L 0.0006 *D AND3x1_ASAP7_75t_L
*I *2963:C I *L 0.0006 *D AND3x1_ASAP7_75t_L
*I *2981:C I *L 0.0006 *D AND3x1_ASAP7_75t_L
*I *2976:C I *L 0.0006 *D AND3x1_ASAP7_75t_L
*I *2971:C I *L 0.0006 *D AND3x1_ASAP7_75t_L
*I *2979:C I *L 0.0006 *D AND3x1_ASAP7_75t_L
*I *2990:C I *L 0.0006 *D AND3x1_ASAP7_75t_L
*I *2977:C I *L 0.0006 *D AND3x1_ASAP7_75t_L
*I *3331:Y O *L 0.0000 *D INVx1_ASAP7_75t_L

*CAP
1 *2988:C 0
2 *2969:C 0
3 *2984:C 0
4 *2985:C 0
5 *2980:C 0
6 *2963:C 0
7 *2981:C 0
8 *2976:C 0
9 *2971:C 0
10 *2979:C 0
11 *2990:C 0
12 *2977:C 0

*RES
1 *3331:Y *2988:C 0
2 *3331:Y *2969:C 0
3 *3331:Y *2984:C 0
4 *3331:Y *2985:C 0
5 *3331:Y *2980:C 0
6 *3331:Y *2963:C 0
7 *3331:Y *2981:C 0
8 *3331:Y *2976:C 0
9 *3331:Y *2971:C 0
10 *3331:Y *2979:C 0
11 *3331:Y *2990:C 0
12 *3331:Y *2977:C 0
*END

*D_NET *476 0.000000

*CONN
*I *2964:C I *L 0.0006 *D AND3x1_ASAP7_75t_L
*I *2978:C I *L 0.0006 *D AND3x1_ASAP7_75t_L
*I *2991:C I *L 0.0006 *D AND3x1_ASAP7_75t_L
*I *2983:C I *L 0.0006 *D AND3x1_ASAP7_75t_L
*I *2974:C I *L 0.0006 *D AND3x1_ASAP7_75t_L
*I *2993:C I *L 0.0006 *D AND3x1_ASAP7_75t_L
*I *2966:C I *L 0.0006 *D AND3x1_ASAP7_75t_L
*I *2945:C I *L 0.0006 *D AND3x1_ASAP7_75t_L
*I *2972:C I *L 0.0006 *D AND3x1_ASAP7_75t_L
*I *2987:C I *L 0.0006 *D AND3x1_ASAP7_75t_L
*I *2965:C I *L 0.0006 *D AND3x1_ASAP7_75t_L
*I *2989:C I *L 0.0006 *D AND3x1_ASAP7_75t_L
*I *2970:C I *L 0.0006 *D AND3x1_ASAP7_75t_L
*I *3330:Y O *L 0.0000 *D INVx1_ASAP7_75t_L

*CAP
1 *2964:C 0
2 *2978:C 0
3 *2991:C 0
4 *2983:C 0
5 *2974:C 0
6 *2993:C 0
7 *2966:C 0
8 *2945:C 0
9 *2972:C 0
10 *2987:C 0
11 *2965:C 0
12 *2989:C 0
13 *2970:C 0

*RES
1 *3330:Y *2964:C 0
2 *3330:Y *2978:C 0
3 *3330:Y *2991:C 0
4 *3330:Y *2983:C 0
5 *3330:Y *2974:C 0
6 *3330:Y *2993:C 0
7 *3330:Y *2966:C 0
8 *3330:Y *2945:C 0
9 *3330:Y *2972:C 0
10 *3330:Y *2987:C 0
11 *3330:Y *2965:C 0
12 *3330:Y *2989:C 0
13 *3330:Y *2970:C 0
*END

*D_NET *477 0.000000

*CONN
*I *2841:C I *L 0.0006 *D A2O1A1Ixp33_ASAP7_75t_L
*I *2900:C I *L 0.0006 *D A2O1A1Ixp33_ASAP7_75t_L
*I *2869:C I *L 0.0006 *D A2O1A1Ixp33_ASAP7_75t_L
*I *2884:C I *L 0.0006 *D A2O1A1Ixp33_ASAP7_75t_L
*I *2870:C I *L 0.0006 *D A2O1A1Ixp33_ASAP7_75t_L
*I *2896:C I *L 0.0006 *D A2O1A1Ixp33_ASAP7_75t_L
*I *2877:C I *L 0.0006 *D A2O1A1Ixp33_ASAP7_75t_L
*I *2897:C I *L 0.0006 *D A2O1A1Ixp33_ASAP7_75t_L
*I *2874:C I *L 0.0006 *D A2O1A1Ixp33_ASAP7_75t_L
*I *3053:C I *L 0.0006 *D A2O1A1Ixp33_ASAP7_75t_L
*I *2882:C I *L 0.0006 *D A2O1A1Ixp33_ASAP7_75t_L
*I *2943:C I *L 0.0006 *D A2O1A1Ixp33_ASAP7_75t_L
*I *2868:C I *L 0.0006 *D A2O1A1Ixp33_ASAP7_75t_L
*I *2786:B2 I *L 0.0005 *D AOI221xp5_ASAP7_75t_L
*I *3328:Y O *L 0.0000 *D INVx1_ASAP7_75t_L

*CAP
1 *2841:C 0
2 *2900:C 0
3 *2869:C 0
4 *2884:C 0
5 *2870:C 0
6 *2896:C 0
7 *2877:C 0
8 *2897:C 0
9 *2874:C 0
10 *3053:C 0
11 *2882:C 0
12 *2943:C 0
13 *2868:C 0
14 *2786:B2 0

*RES
1 *3328:Y *2841:C 0
2 *3328:Y *2900:C 0
3 *3328:Y *2869:C 0
4 *3328:Y *2884:C 0
5 *3328:Y *2870:C 0
6 *3328:Y *2896:C 0
7 *3328:Y *2877:C 0
8 *3328:Y *2897:C 0
9 *3328:Y *2874:C 0
10 *3328:Y *3053:C 0
11 *3328:Y *2882:C 0
12 *3328:Y *2943:C 0
13 *3328:Y *2868:C 0
14 *3328:Y *2786:B2 0
*END

*D_NET *478 0.000000

*CONN
*I *3326:A I *L 0.0006 *D INVx1_ASAP7_75t_L
*I *3327:Y O *L 0.0000 *D INVx1_ASAP7_75t_L

*CAP
1 *3326:A 0

*RES
1 *3327:Y *3326:A 0
*END

*D_NET *479 0.000000

*CONN
*I *2784:A2 I *L 0.0006 *D A2O1A1Ixp33_ASAP7_75t_L
*I *2799:A2 I *L 0.0006 *D A2O1A1Ixp33_ASAP7_75t_L
*I *2796:A2 I *L 0.0006 *D A2O1A1Ixp33_ASAP7_75t_L
*I *2765:A2 I *L 0.0006 *D A2O1A1Ixp33_ASAP7_75t_L
*I *2794:A2 I *L 0.0006 *D A2O1A1Ixp33_ASAP7_75t_L
*I *2795:A2 I *L 0.0006 *D A2O1A1Ixp33_ASAP7_75t_L
*I *2798:A2 I *L 0.0006 *D A2O1A1Ixp33_ASAP7_75t_L
*I *2774:A I *L 0.0003 *D NOR2xp33_ASAP7_75t_L
*I *2828:B I *L 0.0004 *D NOR2xp33_ASAP7_75t_L
*I *2792:B I *L 0.0004 *D NOR2xp33_ASAP7_75t_L
*I *2837:B I *L 0.0004 *D NOR2xp33_ASAP7_75t_L
*I *2825:B I *L 0.0004 *D NOR2xp33_ASAP7_75t_L
*I *2827:B I *L 0.0004 *D NOR2xp33_ASAP7_75t_L
*I *2810:B I *L 0.0004 *D NOR2xp33_ASAP7_75t_L
*I *3326:Y O *L 0.0000 *D INVx1_ASAP7_75t_L

*CAP
1 *2784:A2 0
2 *2799:A2 0
3 *2796:A2 0
4 *2765:A2 0
5 *2794:A2 0
6 *2795:A2 0
7 *2798:A2 0
8 *2774:A 0
9 *2828:B 0
10 *2792:B 0
11 *2837:B 0
12 *2825:B 0
13 *2827:B 0
14 *2810:B 0

*RES
1 *3326:Y *2784:A2 0
2 *3326:Y *2799:A2 0
3 *3326:Y *2796:A2 0
4 *3326:Y *2765:A2 0
5 *3326:Y *2794:A2 0
6 *3326:Y *2795:A2 0
7 *3326:Y *2798:A2 0
8 *3326:Y *2774:A 0
9 *3326:Y *2828:B 0
10 *3326:Y *2792:B 0
11 *3326:Y *2837:B 0
12 *3326:Y *2825:B 0
13 *3326:Y *2827:B 0
14 *3326:Y *2810:B 0
*END

*D_NET *480 0.000000

*CONN
*I *3156:B I *L 0.0005 *D AND2x2_ASAP7_75t_L
*I *3161:B I *L 0.0005 *D AND2x2_ASAP7_75t_L
*I *3134:B I *L 0.0005 *D AND2x2_ASAP7_75t_L
*I *3119:B I *L 0.0005 *D AND2x2_ASAP7_75t_L
*I *3130:B I *L 0.0005 *D AND2x2_ASAP7_75t_L
*I *3116:B I *L 0.0005 *D AND2x2_ASAP7_75t_L
*I *3152:B I *L 0.0005 *D AND2x2_ASAP7_75t_L
*I *3155:B I *L 0.0005 *D AND2x2_ASAP7_75t_L
*I *3128:B I *L 0.0005 *D AND2x2_ASAP7_75t_L
*I *3159:B I *L 0.0005 *D AND2x2_ASAP7_75t_L
*I *3124:B I *L 0.0005 *D AND2x2_ASAP7_75t_L
*I *3160:B I *L 0.0005 *D AND2x2_ASAP7_75t_L
*I *3324:Y O *L 0.0000 *D INVx1_ASAP7_75t_L

*CAP
1 *3156:B 0
2 *3161:B 0
3 *3134:B 0
4 *3119:B 0
5 *3130:B 0
6 *3116:B 0
7 *3152:B 0
8 *3155:B 0
9 *3128:B 0
10 *3159:B 0
11 *3124:B 0
12 *3160:B 0

*RES
1 *3324:Y *3156:B 0
2 *3324:Y *3161:B 0
3 *3324:Y *3134:B 0
4 *3324:Y *3119:B 0
5 *3324:Y *3130:B 0
6 *3324:Y *3116:B 0
7 *3324:Y *3152:B 0
8 *3324:Y *3155:B 0
9 *3324:Y *3128:B 0
10 *3324:Y *3159:B 0
11 *3324:Y *3124:B 0
12 *3324:Y *3160:B 0
*END

*D_NET *481 0.000000

*CONN
*I *3204:A I *L 0.0006 *D INVx1_ASAP7_75t_L
*I *3127:B I *L 0.0005 *D AND2x2_ASAP7_75t_L
*I *3157:B I *L 0.0005 *D AND2x2_ASAP7_75t_L
*I *3166:B I *L 0.0005 *D AND2x2_ASAP7_75t_L
*I *3145:B I *L 0.0005 *D AND2x2_ASAP7_75t_L
*I *3120:B I *L 0.0005 *D AND2x2_ASAP7_75t_L
*I *3163:B I *L 0.0005 *D AND2x2_ASAP7_75t_L
*I *3131:B I *L 0.0005 *D AND2x2_ASAP7_75t_L
*I *3123:B I *L 0.0005 *D AND2x2_ASAP7_75t_L
*I *3136:B I *L 0.0005 *D AND2x2_ASAP7_75t_L
*I *3158:B I *L 0.0005 *D AND2x2_ASAP7_75t_L
*I *3162:B I *L 0.0005 *D AND2x2_ASAP7_75t_L
*I *3138:B I *L 0.0005 *D AND2x2_ASAP7_75t_L
*I *3323:Y O *L 0.0000 *D INVx1_ASAP7_75t_L

*CAP
1 *3204:A 0
2 *3127:B 0
3 *3157:B 0
4 *3166:B 0
5 *3145:B 0
6 *3120:B 0
7 *3163:B 0
8 *3131:B 0
9 *3123:B 0
10 *3136:B 0
11 *3158:B 0
12 *3162:B 0
13 *3138:B 0

*RES
1 *3323:Y *3204:A 0
2 *3323:Y *3127:B 0
3 *3323:Y *3157:B 0
4 *3323:Y *3166:B 0
5 *3323:Y *3145:B 0
6 *3323:Y *3120:B 0
7 *3323:Y *3163:B 0
8 *3323:Y *3131:B 0
9 *3323:Y *3123:B 0
10 *3323:Y *3136:B 0
11 *3323:Y *3158:B 0
12 *3323:Y *3162:B 0
13 *3323:Y *3138:B 0
*END

*D_NET *482 0.000000

*CONN
*I *3321:A I *L 0.0006 *D INVx1_ASAP7_75t_L
*I *3322:Y O *L 0.0000 *D INVx1_ASAP7_75t_L

*CAP
1 *3321:A 0

*RES
1 *3322:Y *3321:A 0
*END

*D_NET *483 0.000000

*CONN
*I *2789:A2 I *L 0.0006 *D A2O1A1Ixp33_ASAP7_75t_L
*I *2770:A2 I *L 0.0006 *D A2O1A1Ixp33_ASAP7_75t_L
*I *2776:A2 I *L 0.0006 *D A2O1A1Ixp33_ASAP7_75t_L
*I *2957:C I *L 0.0006 *D O2A1O1Ixp33_ASAP7_75t_L
*I *2905:C I *L 0.0006 *D O2A1O1Ixp33_ASAP7_75t_L
*I *2958:C I *L 0.0006 *D O2A1O1Ixp33_ASAP7_75t_L
*I *2956:C I *L 0.0006 *D O2A1O1Ixp33_ASAP7_75t_L
*I *2781:C I *L 0.0006 *D O2A1O1Ixp33_ASAP7_75t_L
*I *2838:C I *L 0.0006 *D O2A1O1Ixp33_ASAP7_75t_L
*I *2911:A2 I *L 0.0006 *D A2O1A1Ixp33_ASAP7_75t_L
*I *2910:A2 I *L 0.0006 *D A2O1A1Ixp33_ASAP7_75t_L
*I *2766:A2 I *L 0.0006 *D A2O1A1Ixp33_ASAP7_75t_L
*I *2783:A2 I *L 0.0006 *D A2O1A1Ixp33_ASAP7_75t_L
*I *2909:A2 I *L 0.0006 *D A2O1A1Ixp33_ASAP7_75t_L
*I *3321:Y O *L 0.0000 *D INVx1_ASAP7_75t_L

*CAP
1 *2789:A2 0
2 *2770:A2 0
3 *2776:A2 0
4 *2957:C 0
5 *2905:C 0
6 *2958:C 0
7 *2956:C 0
8 *2781:C 0
9 *2838:C 0
10 *2911:A2 0
11 *2910:A2 0
12 *2766:A2 0
13 *2783:A2 0
14 *2909:A2 0

*RES
1 *3321:Y *2789:A2 0
2 *3321:Y *2770:A2 0
3 *3321:Y *2776:A2 0
4 *3321:Y *2957:C 0
5 *3321:Y *2905:C 0
6 *3321:Y *2958:C 0
7 *3321:Y *2956:C 0
8 *3321:Y *2781:C 0
9 *3321:Y *2838:C 0
10 *3321:Y *2911:A2 0
11 *3321:Y *2910:A2 0
12 *3321:Y *2766:A2 0
13 *3321:Y *2783:A2 0
14 *3321:Y *2909:A2 0
*END

*D_NET *484 0.000000

*CONN
*I *2953:A2 I *L 0.0006 *D A2O1A1Ixp33_ASAP7_75t_L
*I *3022:B I *L 0.0005 *D AND2x2_ASAP7_75t_L
*I *2948:A2 I *L 0.0006 *D A2O1A1Ixp33_ASAP7_75t_L
*I *3024:B I *L 0.0005 *D AND2x2_ASAP7_75t_L
*I *3019:B I *L 0.0005 *D AND2x2_ASAP7_75t_L
*I *3023:B I *L 0.0005 *D AND2x2_ASAP7_75t_L
*I *3083:B I *L 0.0004 *D NOR2xp33_ASAP7_75t_L
*I *3078:B I *L 0.0004 *D NOR2xp33_ASAP7_75t_L
*I *3076:B I *L 0.0004 *D NOR2xp33_ASAP7_75t_L
*I *3319:Y O *L 0.0000 *D INVx1_ASAP7_75t_L

*CAP
1 *2953:A2 0
2 *3022:B 0
3 *2948:A2 0
4 *3024:B 0
5 *3019:B 0
6 *3023:B 0
7 *3083:B 0
8 *3078:B 0
9 *3076:B 0

*RES
1 *3319:Y *2953:A2 0
2 *3319:Y *3022:B 0
3 *3319:Y *2948:A2 0
4 *3319:Y *3024:B 0
5 *3319:Y *3019:B 0
6 *3319:Y *3023:B 0
7 *3319:Y *3083:B 0
8 *3319:Y *3078:B 0
9 *3319:Y *3076:B 0
*END

*D_NET *485 0.000000

*CONN
*I *3001:A I *L 0.0006 *D INVx1_ASAP7_75t_L
*I *3318:A I *L 0.0006 *D INVx1_ASAP7_75t_L
*I *3018:Y O *L 0.0000 *D AO21x1_ASAP7_75t_L

*CAP
1 *3001:A 0
2 *3318:A 0

*RES
1 *3018:Y *3001:A 0
2 *3018:Y *3318:A 0
*END

*D_NET *486 0.000000

*CONN
*I *3314:A I *L 0.0006 *D INVx1_ASAP7_75t_L
*I *3315:A I *L 0.0006 *D INVx1_ASAP7_75t_L
*I *3316:A I *L 0.0006 *D INVx1_ASAP7_75t_L
*I *3317:Y O *L 0.0000 *D INVx1_ASAP7_75t_L

*CAP
1 *3314:A 0
2 *3315:A 0
3 *3316:A 0

*RES
1 *3317:Y *3314:A 0
2 *3317:Y *3315:A 0
3 *3317:Y *3316:A 0
*END

*D_NET *487 0.000000

*CONN
*I *2839:C I *L 0.0006 *D A2O1A1Ixp33_ASAP7_75t_L
*I *2822:C I *L 0.0006 *D A2O1A1Ixp33_ASAP7_75t_L
*I *2880:C I *L 0.0006 *D A2O1A1Ixp33_ASAP7_75t_L
*I *2955:C I *L 0.0006 *D A2O1A1Ixp33_ASAP7_75t_L
*I *2820:C I *L 0.0006 *D A2O1A1Ixp33_ASAP7_75t_L
*I *2878:C I *L 0.0006 *D A2O1A1Ixp33_ASAP7_75t_L
*I *2876:C I *L 0.0006 *D A2O1A1Ixp33_ASAP7_75t_L
*I *2821:C I *L 0.0006 *D A2O1A1Ixp33_ASAP7_75t_L
*I *3062:C I *L 0.0006 *D A2O1A1Ixp33_ASAP7_75t_L
*I *2872:C I *L 0.0006 *D A2O1A1Ixp33_ASAP7_75t_L
*I *2881:C I *L 0.0006 *D A2O1A1Ixp33_ASAP7_75t_L
*I *2909:C I *L 0.0006 *D A2O1A1Ixp33_ASAP7_75t_L
*I *2913:C I *L 0.0006 *D A2O1A1Ixp33_ASAP7_75t_L
*I *3039:C I *L 0.0006 *D A2O1A1Ixp33_ASAP7_75t_L
*I *2788:C I *L 0.0006 *D A2O1A1Ixp33_ASAP7_75t_L
*I *3316:Y O *L 0.0000 *D INVx1_ASAP7_75t_L

*CAP
1 *2839:C 0
2 *2822:C 0
3 *2880:C 0
4 *2955:C 0
5 *2820:C 0
6 *2878:C 0
7 *2876:C 0
8 *2821:C 0
9 *3062:C 0
10 *2872:C 0
11 *2881:C 0
12 *2909:C 0
13 *2913:C 0
14 *3039:C 0
15 *2788:C 0

*RES
1 *3316:Y *2839:C 0
2 *3316:Y *2822:C 0
3 *3316:Y *2880:C 0
4 *3316:Y *2955:C 0
5 *3316:Y *2820:C 0
6 *3316:Y *2878:C 0
7 *3316:Y *2876:C 0
8 *3316:Y *2821:C 0
9 *3316:Y *3062:C 0
10 *3316:Y *2872:C 0
11 *3316:Y *2881:C 0
12 *3316:Y *2909:C 0
13 *3316:Y *2913:C 0
14 *3316:Y *3039:C 0
15 *3316:Y *2788:C 0
*END

*D_NET *488 0.000000

*CONN
*I *2901:C I *L 0.0006 *D A2O1A1Ixp33_ASAP7_75t_L
*I *2902:C I *L 0.0006 *D A2O1A1Ixp33_ASAP7_75t_L
*I *3065:C I *L 0.0006 *D A2O1A1Ixp33_ASAP7_75t_L
*I *3049:C I *L 0.0006 *D A2O1A1Ixp33_ASAP7_75t_L
*I *3035:C I *L 0.0006 *D A2O1A1Ixp33_ASAP7_75t_L
*I *3074:C I *L 0.0006 *D A2O1A1Ixp33_ASAP7_75t_L
*I *2941:C I *L 0.0006 *D A2O1A1Ixp33_ASAP7_75t_L
*I *3072:C I *L 0.0006 *D A2O1A1Ixp33_ASAP7_75t_L
*I *2830:C I *L 0.0006 *D A2O1A1Ixp33_ASAP7_75t_L
*I *2824:C I *L 0.0006 *D A2O1A1Ixp33_ASAP7_75t_L
*I *2819:C I *L 0.0006 *D A2O1A1Ixp33_ASAP7_75t_L
*I *3025:C I *L 0.0006 *D A2O1A1Ixp33_ASAP7_75t_L
*I *2910:C I *L 0.0006 *D A2O1A1Ixp33_ASAP7_75t_L
*I *2770:C I *L 0.0006 *D A2O1A1Ixp33_ASAP7_75t_L
*I *2776:C I *L 0.0006 *D A2O1A1Ixp33_ASAP7_75t_L
*I *3056:C I *L 0.0006 *D A2O1A1Ixp33_ASAP7_75t_L
*I *3315:Y O *L 0.0000 *D INVx1_ASAP7_75t_L

*CAP
1 *2901:C 0
2 *2902:C 0
3 *3065:C 0
4 *3049:C 0
5 *3035:C 0
6 *3074:C 0
7 *2941:C 0
8 *3072:C 0
9 *2830:C 0
10 *2824:C 0
11 *2819:C 0
12 *3025:C 0
13 *2910:C 0
14 *2770:C 0
15 *2776:C 0
16 *3056:C 0

*RES
1 *3315:Y *2901:C 0
2 *3315:Y *2902:C 0
3 *3315:Y *3065:C 0
4 *3315:Y *3049:C 0
5 *3315:Y *3035:C 0
6 *3315:Y *3074:C 0
7 *3315:Y *2941:C 0
8 *3315:Y *3072:C 0
9 *3315:Y *2830:C 0
10 *3315:Y *2824:C 0
11 *3315:Y *2819:C 0
12 *3315:Y *3025:C 0
13 *3315:Y *2910:C 0
14 *3315:Y *2770:C 0
15 *3315:Y *2776:C 0
16 *3315:Y *3056:C 0
*END

*D_NET *489 0.000000

*CONN
*I *3036:C I *L 0.0006 *D A2O1A1Ixp33_ASAP7_75t_L
*I *2899:C I *L 0.0006 *D A2O1A1Ixp33_ASAP7_75t_L
*I *3066:C I *L 0.0006 *D A2O1A1Ixp33_ASAP7_75t_L
*I *3071:C I *L 0.0006 *D A2O1A1Ixp33_ASAP7_75t_L
*I *3063:C I *L 0.0006 *D A2O1A1Ixp33_ASAP7_75t_L
*I *2960:C I *L 0.0006 *D A2O1A1Ixp33_ASAP7_75t_L
*I *2942:C I *L 0.0006 *D A2O1A1Ixp33_ASAP7_75t_L
*I *3067:C I *L 0.0006 *D A2O1A1Ixp33_ASAP7_75t_L
*I *3034:C I *L 0.0006 *D A2O1A1Ixp33_ASAP7_75t_L
*I *3055:C I *L 0.0006 *D A2O1A1Ixp33_ASAP7_75t_L
*I *2904:C I *L 0.0006 *D A2O1A1Ixp33_ASAP7_75t_L
*I *3064:C I *L 0.0006 *D A2O1A1Ixp33_ASAP7_75t_L
*I *3037:C I *L 0.0006 *D A2O1A1Ixp33_ASAP7_75t_L
*I *2939:C I *L 0.0006 *D A2O1A1Ixp33_ASAP7_75t_L
*I *2813:C I *L 0.0006 *D A2O1A1Ixp33_ASAP7_75t_L
*I *3068:C I *L 0.0006 *D A2O1A1Ixp33_ASAP7_75t_L
*I *3314:Y O *L 0.0000 *D INVx1_ASAP7_75t_L

*CAP
1 *3036:C 0
2 *2899:C 0
3 *3066:C 0
4 *3071:C 0
5 *3063:C 0
6 *2960:C 0
7 *2942:C 0
8 *3067:C 0
9 *3034:C 0
10 *3055:C 0
11 *2904:C 0
12 *3064:C 0
13 *3037:C 0
14 *2939:C 0
15 *2813:C 0
16 *3068:C 0

*RES
1 *3314:Y *3036:C 0
2 *3314:Y *2899:C 0
3 *3314:Y *3066:C 0
4 *3314:Y *3071:C 0
5 *3314:Y *3063:C 0
6 *3314:Y *2960:C 0
7 *3314:Y *2942:C 0
8 *3314:Y *3067:C 0
9 *3314:Y *3034:C 0
10 *3314:Y *3055:C 0
11 *3314:Y *2904:C 0
12 *3314:Y *3064:C 0
13 *3314:Y *3037:C 0
14 *3314:Y *2939:C 0
15 *3314:Y *2813:C 0
16 *3314:Y *3068:C 0
*END

*D_NET *490 0.000000

*CONN
*I *3310:A I *L 0.0006 *D INVx1_ASAP7_75t_L
*I *3311:A I *L 0.0006 *D INVx1_ASAP7_75t_L
*I *3312:A I *L 0.0006 *D INVx1_ASAP7_75t_L
*I *3313:Y O *L 0.0000 *D INVx1_ASAP7_75t_L

*CAP
1 *3310:A 0
2 *3311:A 0
3 *3312:A 0

*RES
1 *3313:Y *3310:A 0
2 *3313:Y *3311:A 0
3 *3313:Y *3312:A 0
*END

*D_NET *491 0.000000

*CONN
*I *2764:C I *L 0.0006 *D A2O1A1Ixp33_ASAP7_75t_L
*I *2777:C I *L 0.0006 *D A2O1A1Ixp33_ASAP7_75t_L
*I *3054:C I *L 0.0006 *D A2O1A1Ixp33_ASAP7_75t_L
*I *2875:C I *L 0.0006 *D A2O1A1Ixp33_ASAP7_75t_L
*I *2765:C I *L 0.0006 *D A2O1A1Ixp33_ASAP7_75t_L
*I *2799:C I *L 0.0006 *D A2O1A1Ixp33_ASAP7_75t_L
*I *2953:C I *L 0.0006 *D A2O1A1Ixp33_ASAP7_75t_L
*I *3051:C I *L 0.0006 *D A2O1A1Ixp33_ASAP7_75t_L
*I *2795:C I *L 0.0006 *D A2O1A1Ixp33_ASAP7_75t_L
*I *2783:C I *L 0.0006 *D A2O1A1Ixp33_ASAP7_75t_L
*I *2938:C I *L 0.0006 *D A2O1A1Ixp33_ASAP7_75t_L
*I *3073:C I *L 0.0006 *D A2O1A1Ixp33_ASAP7_75t_L
*I *2767:C I *L 0.0006 *D A2O1A1Ixp33_ASAP7_75t_L
*I *2925:C I *L 0.0006 *D A2O1A1Ixp33_ASAP7_75t_L
*I *2873:C I *L 0.0006 *D A2O1A1Ixp33_ASAP7_75t_L
*I *3038:C I *L 0.0006 *D A2O1A1Ixp33_ASAP7_75t_L
*I *3312:Y O *L 0.0000 *D INVx1_ASAP7_75t_L

*CAP
1 *2764:C 0
2 *2777:C 0
3 *3054:C 0
4 *2875:C 0
5 *2765:C 0
6 *2799:C 0
7 *2953:C 0
8 *3051:C 0
9 *2795:C 0
10 *2783:C 0
11 *2938:C 0
12 *3073:C 0
13 *2767:C 0
14 *2925:C 0
15 *2873:C 0
16 *3038:C 0

*RES
1 *3312:Y *2764:C 0
2 *3312:Y *2777:C 0
3 *3312:Y *3054:C 0
4 *3312:Y *2875:C 0
5 *3312:Y *2765:C 0
6 *3312:Y *2799:C 0
7 *3312:Y *2953:C 0
8 *3312:Y *3051:C 0
9 *3312:Y *2795:C 0
10 *3312:Y *2783:C 0
11 *3312:Y *2938:C 0
12 *3312:Y *3073:C 0
13 *3312:Y *2767:C 0
14 *3312:Y *2925:C 0
15 *3312:Y *2873:C 0
16 *3312:Y *3038:C 0
*END

*D_NET *492 0.000000

*CONN
*I *3044:C I *L 0.0006 *D A2O1A1Ixp33_ASAP7_75t_L
*I *3043:C I *L 0.0006 *D A2O1A1Ixp33_ASAP7_75t_L
*I *3032:C I *L 0.0006 *D A2O1A1Ixp33_ASAP7_75t_L
*I *3029:C I *L 0.0006 *D A2O1A1Ixp33_ASAP7_75t_L
*I *3061:C I *L 0.0006 *D A2O1A1Ixp33_ASAP7_75t_L
*I *3060:C I *L 0.0006 *D A2O1A1Ixp33_ASAP7_75t_L
*I *2952:C I *L 0.0006 *D A2O1A1Ixp33_ASAP7_75t_L
*I *3026:C I *L 0.0006 *D A2O1A1Ixp33_ASAP7_75t_L
*I *3041:C I *L 0.0006 *D A2O1A1Ixp33_ASAP7_75t_L
*I *2934:C I *L 0.0006 *D A2O1A1Ixp33_ASAP7_75t_L
*I *2812:C I *L 0.0006 *D A2O1A1Ixp33_ASAP7_75t_L
*I *3069:C I *L 0.0006 *D A2O1A1Ixp33_ASAP7_75t_L
*I *2817:C I *L 0.0006 *D A2O1A1Ixp33_ASAP7_75t_L
*I *2924:C I *L 0.0006 *D A2O1A1Ixp33_ASAP7_75t_L
*I *2893:C I *L 0.0006 *D A2O1A1Ixp33_ASAP7_75t_L
*I *2911:C I *L 0.0006 *D A2O1A1Ixp33_ASAP7_75t_L
*I *3311:Y O *L 0.0000 *D INVx1_ASAP7_75t_L

*CAP
1 *3044:C 0
2 *3043:C 0
3 *3032:C 0
4 *3029:C 0
5 *3061:C 0
6 *3060:C 0
7 *2952:C 0
8 *3026:C 0
9 *3041:C 0
10 *2934:C 0
11 *2812:C 0
12 *3069:C 0
13 *2817:C 0
14 *2924:C 0
15 *2893:C 0
16 *2911:C 0

*RES
1 *3311:Y *3044:C 0
2 *3311:Y *3043:C 0
3 *3311:Y *3032:C 0
4 *3311:Y *3029:C 0
5 *3311:Y *3061:C 0
6 *3311:Y *3060:C 0
7 *3311:Y *2952:C 0
8 *3311:Y *3026:C 0
9 *3311:Y *3041:C 0
10 *3311:Y *2934:C 0
11 *3311:Y *2812:C 0
12 *3311:Y *3069:C 0
13 *3311:Y *2817:C 0
14 *3311:Y *2924:C 0
15 *3311:Y *2893:C 0
16 *3311:Y *2911:C 0
*END

*D_NET *493 0.000000

*CONN
*I *3086:C I *L 0.0006 *D A2O1A1Ixp33_ASAP7_75t_L
*I *2940:C I *L 0.0006 *D A2O1A1Ixp33_ASAP7_75t_L
*I *2948:C I *L 0.0006 *D A2O1A1Ixp33_ASAP7_75t_L
*I *2906:C I *L 0.0006 *D A2O1A1Ixp33_ASAP7_75t_L
*I *2814:C I *L 0.0006 *D A2O1A1Ixp33_ASAP7_75t_L
*I *2798:C I *L 0.0006 *D A2O1A1Ixp33_ASAP7_75t_L
*I *2951:C I *L 0.0006 *D A2O1A1Ixp33_ASAP7_75t_L
*I *2883:C I *L 0.0006 *D A2O1A1Ixp33_ASAP7_75t_L
*I *2794:C I *L 0.0006 *D A2O1A1Ixp33_ASAP7_75t_L
*I *2797:C I *L 0.0006 *D A2O1A1Ixp33_ASAP7_75t_L
*I *2932:C I *L 0.0006 *D A2O1A1Ixp33_ASAP7_75t_L
*I *2801:C I *L 0.0006 *D A2O1A1Ixp33_ASAP7_75t_L
*I *2816:C I *L 0.0006 *D A2O1A1Ixp33_ASAP7_75t_L
*I *2796:C I *L 0.0006 *D A2O1A1Ixp33_ASAP7_75t_L
*I *3047:C I *L 0.0006 *D A2O1A1Ixp33_ASAP7_75t_L
*I *3040:C I *L 0.0006 *D A2O1A1Ixp33_ASAP7_75t_L
*I *3310:Y O *L 0.0000 *D INVx1_ASAP7_75t_L

*CAP
1 *3086:C 0
2 *2940:C 0
3 *2948:C 0
4 *2906:C 0
5 *2814:C 0
6 *2798:C 0
7 *2951:C 0
8 *2883:C 0
9 *2794:C 0
10 *2797:C 0
11 *2932:C 0
12 *2801:C 0
13 *2816:C 0
14 *2796:C 0
15 *3047:C 0
16 *3040:C 0

*RES
1 *3310:Y *3086:C 0
2 *3310:Y *2940:C 0
3 *3310:Y *2948:C 0
4 *3310:Y *2906:C 0
5 *3310:Y *2814:C 0
6 *3310:Y *2798:C 0
7 *3310:Y *2951:C 0
8 *3310:Y *2883:C 0
9 *3310:Y *2794:C 0
10 *3310:Y *2797:C 0
11 *3310:Y *2932:C 0
12 *3310:Y *2801:C 0
13 *3310:Y *2816:C 0
14 *3310:Y *2796:C 0
15 *3310:Y *3047:C 0
16 *3310:Y *3040:C 0
*END

*D_NET *494 0.000000

*CONN
*I *2834:A I *L 0.0003 *D NOR2xp33_ASAP7_75t_L
*I *2804:B1 I *L 0.0004 *D OAI22xp33_ASAP7_75t_L
*I *3328:A I *L 0.0006 *D INVx1_ASAP7_75t_L
*I *3329:Y O *L 0.0000 *D INVx1_ASAP7_75t_L

*CAP
1 *2834:A 0
2 *2804:B1 0
3 *3328:A 0

*RES
1 *3329:Y *2834:A 0
2 *3329:Y *2804:B1 0
3 *3329:Y *3328:A 0
*END

*D_NET *495 0.000000

*CONN
*I *2842:A1 I *L 0.0006 *D O2A1O1Ixp33_ASAP7_75t_L
*I *3256:A I *L 0.0005 *D NAND2xp5_ASAP7_75t_L
*I *3303:Y O *L 0.0000 *D INVx1_ASAP7_75t_L

*CAP
1 *2842:A1 0
2 *3256:A 0

*RES
1 *3303:Y *2842:A1 0
2 *3303:Y *3256:A 0
*END

*D_NET *496 0.000000

*CONN
*I *3258:B I *L 0.0005 *D NAND2xp5_ASAP7_75t_L
*I *3302:Y O *L 0.0000 *D INVx1_ASAP7_75t_L

*CAP
1 *3258:B 0

*RES
1 *3302:Y *3258:B 0
*END

*D_NET *497 0.000000

*CONN
*I *3266:B I *L 0.0005 *D NAND2xp5_ASAP7_75t_L
*I *3234:B I *L 0.0006 *D OR3x1_ASAP7_75t_L
*I *3296:Y O *L 0.0000 *D INVx1_ASAP7_75t_L

*CAP
1 *3266:B 0
2 *3234:B 0

*RES
1 *3296:Y *3266:B 0
2 *3296:Y *3234:B 0
*END

*D_NET *498 0.000000

*CONN
*I *3087:B I *L 0.0006 *D OAI21xp5_ASAP7_75t_L
*I *3331:A I *L 0.0006 *D INVx1_ASAP7_75t_L
*I *3330:A I *L 0.0006 *D INVx1_ASAP7_75t_L
*I *3332:Y O *L 0.0000 *D INVx1_ASAP7_75t_L

*CAP
1 *3087:B 0
2 *3331:A 0
3 *3330:A 0

*RES
1 *3332:Y *3087:B 0
2 *3332:Y *3331:A 0
3 *3332:Y *3330:A 0
*END

*D_NET *499 0.000000

*CONN
*I *3111:C I *L 0.0005 *D NOR3xp33_ASAP7_75t_L
*I *2992:C I *L 0.0006 *D AND3x1_ASAP7_75t_L
*I *2986:C I *L 0.0006 *D AND3x1_ASAP7_75t_L
*I *2975:C I *L 0.0006 *D AND3x1_ASAP7_75t_L
*I *2973:C I *L 0.0006 *D AND3x1_ASAP7_75t_L
*I *2779:B1 I *L 0.0005 *D AOI221xp5_ASAP7_75t_L
*I *2994:C I *L 0.0006 *D AND3x1_ASAP7_75t_L
*I *2982:C I *L 0.0006 *D AND3x1_ASAP7_75t_L
*I *2944:C I *L 0.0006 *D AND3x1_ASAP7_75t_L
*I *3100:C I *L 0.0005 *D NOR3xp33_ASAP7_75t_L
*I *2805:B1 I *L 0.0006 *D AOI333xp33_ASAP7_75t_L
*I *3332:A I *L 0.0006 *D INVx1_ASAP7_75t_L
*I *3236:Y O *L 0.0000 *D NOR2xp33_ASAP7_75t_L

*CAP
1 *3111:C 0
2 *2992:C 0
3 *2986:C 0
4 *2975:C 0
5 *2973:C 0
6 *2779:B1 0
7 *2994:C 0
8 *2982:C 0
9 *2944:C 0
10 *3100:C 0
11 *2805:B1 0
12 *3332:A 0

*RES
1 *3236:Y *3111:C 0
2 *3236:Y *2992:C 0
3 *3236:Y *2986:C 0
4 *3236:Y *2975:C 0
5 *3236:Y *2973:C 0
6 *3236:Y *2779:B1 0
7 *3236:Y *2994:C 0
8 *3236:Y *2982:C 0
9 *3236:Y *2944:C 0
10 *3236:Y *3100:C 0
11 *3236:Y *2805:B1 0
12 *3236:Y *3332:A 0
*END

*D_NET *500 0.000000

*CONN
*I *3225:A I *L 0.0003 *D HB1xp67_ASAP7_75t_L
*I *2847:B I *L 0.0005 *D NAND3xp33_ASAP7_75t_L
*I *3105:B I *L 0.0005 *D NOR4xp25_ASAP7_75t_L
*I *3094:C I *L 0.0005 *D AOI211xp5_ASAP7_75t_L
*I *3226:A I *L 0.0006 *D INVx1_ASAP7_75t_L
*I *3200:B I *L 0.0005 *D AND2x2_ASAP7_75t_L
*I *3221:A I *L 0.0005 *D AND2x2_ASAP7_75t_L
*I *2914:A2 I *L 0.0004 *D AOI21xp33_ASAP7_75t_L
*I *3192:B I *L 0.0005 *D NAND2xp5_ASAP7_75t_L
*I *2843:B2 I *L 0.0004 *D AOI22xp33_ASAP7_75t_L
*I *2929:B2 I *L 0.0004 *D AOI22xp33_ASAP7_75t_L
*I *2912:B2 I *L 0.0004 *D AOI22xp33_ASAP7_75t_L
*I *3090:B2 I *L 0.0004 *D AOI22xp33_ASAP7_75t_L
*I *3102:B2 I *L 0.0004 *D AOI22xp33_ASAP7_75t_L
*I *3010:B2 I *L 0.0004 *D AOI22xp33_ASAP7_75t_L
*I *2962:B2 I *L 0.0004 *D AOI22xp33_ASAP7_75t_L
*I *2851:B2 I *L 0.0004 *D AOI22xp33_ASAP7_75t_L
*I *3112:B2 I *L 0.0004 *D AOI22xp33_ASAP7_75t_L
*I *3235:Y O *L 0.0000 *D NOR3xp33_ASAP7_75t_L

*CAP
1 *3225:A 0
2 *2847:B 0
3 *3105:B 0
4 *3094:C 0
5 *3226:A 0
6 *3200:B 0
7 *3221:A 0
8 *2914:A2 0
9 *3192:B 0
10 *2843:B2 0
11 *2929:B2 0
12 *2912:B2 0
13 *3090:B2 0
14 *3102:B2 0
15 *3010:B2 0
16 *2962:B2 0
17 *2851:B2 0
18 *3112:B2 0

*RES
1 *3235:Y *3225:A 0
2 *3235:Y *2847:B 0
3 *3235:Y *3105:B 0
4 *3235:Y *3094:C 0
5 *3235:Y *3226:A 0
6 *3235:Y *3200:B 0
7 *3235:Y *3221:A 0
8 *3235:Y *2914:A2 0
9 *3235:Y *3192:B 0
10 *3235:Y *2843:B2 0
11 *3235:Y *2929:B2 0
12 *3235:Y *2912:B2 0
13 *3235:Y *3090:B2 0
14 *3235:Y *3102:B2 0
15 *3235:Y *3010:B2 0
16 *3235:Y *2962:B2 0
17 *3235:Y *2851:B2 0
18 *3235:Y *3112:B2 0
*END

*D_NET *501 0.000000

*CONN
*I *3334:A I *L 0.0006 *D INVx1_ASAP7_75t_L
*I *3199:B I *L 0.0004 *D NOR2xp33_ASAP7_75t_L
*I *2915:C I *L 0.0005 *D NOR3xp33_ASAP7_75t_L
*I *3002:B I *L 0.0005 *D NOR3xp33_ASAP7_75t_L
*I *3003:B I *L 0.0005 *D NOR3xp33_ASAP7_75t_L
*I *2933:C I *L 0.0005 *D NOR3xp33_ASAP7_75t_L
*I *2853:A1 I *L 0.0006 *D O2A1O1Ixp33_ASAP7_75t_L
*I *2956:A1 I *L 0.0006 *D O2A1O1Ixp33_ASAP7_75t_L
*I *2961:A1 I *L 0.0006 *D O2A1O1Ixp33_ASAP7_75t_L
*I *2781:A2 I *L 0.0006 *D O2A1O1Ixp33_ASAP7_75t_L
*I *2815:A2 I *L 0.0006 *D O2A1O1Ixp33_ASAP7_75t_L
*I *2771:A2 I *L 0.0006 *D O2A1O1Ixp33_ASAP7_75t_L
*I *2905:A1 I *L 0.0006 *D O2A1O1Ixp33_ASAP7_75t_L
*I *3234:Y O *L 0.0000 *D OR3x1_ASAP7_75t_L

*CAP
1 *3334:A 0
2 *3199:B 0
3 *2915:C 0
4 *3002:B 0
5 *3003:B 0
6 *2933:C 0
7 *2853:A1 0
8 *2956:A1 0
9 *2961:A1 0
10 *2781:A2 0
11 *2815:A2 0
12 *2771:A2 0
13 *2905:A1 0

*RES
1 *3234:Y *3334:A 0
2 *3234:Y *3199:B 0
3 *3234:Y *2915:C 0
4 *3234:Y *3002:B 0
5 *3234:Y *3003:B 0
6 *3234:Y *2933:C 0
7 *3234:Y *2853:A1 0
8 *3234:Y *2956:A1 0
9 *3234:Y *2961:A1 0
10 *3234:Y *2781:A2 0
11 *3234:Y *2815:A2 0
12 *3234:Y *2771:A2 0
13 *3234:Y *2905:A1 0
*END

*D_NET *502 0.000000

*CONN
*I *2846:B I *L 0.0005 *D NAND3xp33_ASAP7_75t_L
*I *3182:A I *L 0.0005 *D NAND3xp33_ASAP7_75t_L
*I *3333:A I *L 0.0006 *D INVx1_ASAP7_75t_L
*I *3334:Y O *L 0.0000 *D INVx1_ASAP7_75t_L

*CAP
1 *2846:B 0
2 *3182:A 0
3 *3333:A 0

*RES
1 *3334:Y *2846:B 0
2 *3334:Y *3182:A 0
3 *3334:Y *3333:A 0
*END

*D_NET *503 0.000000

*CONN
*I *3045:A2 I *L 0.0006 *D A2O1A1Ixp33_ASAP7_75t_L
*I *3029:A2 I *L 0.0006 *D A2O1A1Ixp33_ASAP7_75t_L
*I *3038:A2 I *L 0.0006 *D A2O1A1Ixp33_ASAP7_75t_L
*I *3039:A2 I *L 0.0006 *D A2O1A1Ixp33_ASAP7_75t_L
*I *3040:A2 I *L 0.0006 *D A2O1A1Ixp33_ASAP7_75t_L
*I *3050:A2 I *L 0.0006 *D A2O1A1Ixp33_ASAP7_75t_L
*I *3031:A2 I *L 0.0006 *D A2O1A1Ixp33_ASAP7_75t_L
*I *3046:A2 I *L 0.0006 *D A2O1A1Ixp33_ASAP7_75t_L
*I *3324:A I *L 0.0006 *D INVx1_ASAP7_75t_L
*I *3323:A I *L 0.0006 *D INVx1_ASAP7_75t_L
*I *3025:A2 I *L 0.0006 *D A2O1A1Ixp33_ASAP7_75t_L
*I *3042:A2 I *L 0.0006 *D A2O1A1Ixp33_ASAP7_75t_L
*I *3026:A2 I *L 0.0006 *D A2O1A1Ixp33_ASAP7_75t_L
*I *3027:A2 I *L 0.0006 *D A2O1A1Ixp33_ASAP7_75t_L
*I *3052:A2 I *L 0.0006 *D A2O1A1Ixp33_ASAP7_75t_L
*I *3043:A2 I *L 0.0006 *D A2O1A1Ixp33_ASAP7_75t_L
*I *3044:A2 I *L 0.0006 *D A2O1A1Ixp33_ASAP7_75t_L
*I *3028:A2 I *L 0.0006 *D A2O1A1Ixp33_ASAP7_75t_L
*I *3325:Y O *L 0.0000 *D INVx1_ASAP7_75t_L

*CAP
1 *3045:A2 0
2 *3029:A2 0
3 *3038:A2 0
4 *3039:A2 0
5 *3040:A2 0
6 *3050:A2 0
7 *3031:A2 0
8 *3046:A2 0
9 *3324:A 0
10 *3323:A 0
11 *3025:A2 0
12 *3042:A2 0
13 *3026:A2 0
14 *3027:A2 0
15 *3052:A2 0
16 *3043:A2 0
17 *3044:A2 0
18 *3028:A2 0

*RES
1 *3325:Y *3045:A2 0
2 *3325:Y *3029:A2 0
3 *3325:Y *3038:A2 0
4 *3325:Y *3039:A2 0
5 *3325:Y *3040:A2 0
6 *3325:Y *3050:A2 0
7 *3325:Y *3031:A2 0
8 *3325:Y *3046:A2 0
9 *3325:Y *3324:A 0
10 *3325:Y *3323:A 0
11 *3325:Y *3025:A2 0
12 *3325:Y *3042:A2 0
13 *3325:Y *3026:A2 0
14 *3325:Y *3027:A2 0
15 *3325:Y *3052:A2 0
16 *3325:Y *3043:A2 0
17 *3325:Y *3044:A2 0
18 *3325:Y *3028:A2 0
*END

*D_NET *504 0.000000

*CONN
*I *3030:A2 I *L 0.0006 *D A2O1A1Ixp33_ASAP7_75t_L
*I *3007:B I *L 0.0004 *D NOR2xp33_ASAP7_75t_L
*I *2918:A1 I *L 0.0006 *D OAI311xp33_ASAP7_75t_L
*I *2936:A2 I *L 0.0006 *D OAI21xp5_ASAP7_75t_L
*I *3205:Y O *L 0.0000 *D INVx1_ASAP7_75t_L

*CAP
1 *3030:A2 0
2 *3007:B 0
3 *2918:A1 0
4 *2936:A2 0

*RES
1 *3205:Y *3030:A2 0
2 *3205:Y *3007:B 0
3 *3205:Y *2918:A1 0
4 *3205:Y *2936:A2 0
*END

*D_NET *505 0.000000

*CONN
*I *2937:A1 I *L 0.0006 *D AOI21xp5_ASAP7_75t_L
*I *3205:A I *L 0.0006 *D INVx1_ASAP7_75t_L
*I *3150:B I *L 0.0005 *D AND2x2_ASAP7_75t_L
*I *3121:B I *L 0.0005 *D AND2x2_ASAP7_75t_L
*I *3118:B I *L 0.0005 *D AND2x2_ASAP7_75t_L
*I *3122:B I *L 0.0005 *D AND2x2_ASAP7_75t_L
*I *3164:B I *L 0.0005 *D AND2x2_ASAP7_75t_L
*I *3125:B I *L 0.0005 *D AND2x2_ASAP7_75t_L
*I *3147:B I *L 0.0005 *D AND2x2_ASAP7_75t_L
*I *3144:B I *L 0.0005 *D AND2x2_ASAP7_75t_L
*I *3165:B I *L 0.0005 *D AND2x2_ASAP7_75t_L
*I *3142:B I *L 0.0005 *D AND2x2_ASAP7_75t_L
*I *3133:B I *L 0.0005 *D AND2x2_ASAP7_75t_L
*I *3168:B I *L 0.0005 *D AND2x2_ASAP7_75t_L
*I *3325:A I *L 0.0006 *D INVx1_ASAP7_75t_L
*I *2922:A1 I *L 0.0006 *D AOI21xp5_ASAP7_75t_L
*I *3222:Y O *L 0.0000 *D NOR2xp33_ASAP7_75t_L

*CAP
1 *2937:A1 0
2 *3205:A 0
3 *3150:B 0
4 *3121:B 0
5 *3118:B 0
6 *3122:B 0
7 *3164:B 0
8 *3125:B 0
9 *3147:B 0
10 *3144:B 0
11 *3165:B 0
12 *3142:B 0
13 *3133:B 0
14 *3168:B 0
15 *3325:A 0
16 *2922:A1 0

*RES
1 *3222:Y *2937:A1 0
2 *3222:Y *3205:A 0
3 *3222:Y *3150:B 0
4 *3222:Y *3121:B 0
5 *3222:Y *3118:B 0
6 *3222:Y *3122:B 0
7 *3222:Y *3164:B 0
8 *3222:Y *3125:B 0
9 *3222:Y *3147:B 0
10 *3222:Y *3144:B 0
11 *3222:Y *3165:B 0
12 *3222:Y *3142:B 0
13 *3222:Y *3133:B 0
14 *3222:Y *3168:B 0
15 *3222:Y *3325:A 0
16 *3222:Y *2922:A1 0
*END

*D_NET *506 0.000000

*CONN
*I *3093:A I *L 0.0005 *D NOR3xp33_ASAP7_75t_L
*I *3319:A I *L 0.0006 *D INVx1_ASAP7_75t_L
*I *2943:A2 I *L 0.0006 *D A2O1A1Ixp33_ASAP7_75t_L
*I *2942:A2 I *L 0.0006 *D A2O1A1Ixp33_ASAP7_75t_L
*I *2955:A2 I *L 0.0006 *D A2O1A1Ixp33_ASAP7_75t_L
*I *2941:A2 I *L 0.0006 *D A2O1A1Ixp33_ASAP7_75t_L
*I *2940:A2 I *L 0.0006 *D A2O1A1Ixp33_ASAP7_75t_L
*I *2960:A2 I *L 0.0006 *D A2O1A1Ixp33_ASAP7_75t_L
*I *2938:A2 I *L 0.0006 *D A2O1A1Ixp33_ASAP7_75t_L
*I *2939:A2 I *L 0.0006 *D A2O1A1Ixp33_ASAP7_75t_L
*I *3085:B I *L 0.0004 *D NOR2xp33_ASAP7_75t_L
*I *3017:A I *L 0.0005 *D AND2x2_ASAP7_75t_L
*I *3320:Y O *L 0.0000 *D INVx1_ASAP7_75t_L

*CAP
1 *3093:A 0
2 *3319:A 0
3 *2943:A2 0
4 *2942:A2 0
5 *2955:A2 0
6 *2941:A2 0
7 *2940:A2 0
8 *2960:A2 0
9 *2938:A2 0
10 *2939:A2 0
11 *3085:B 0
12 *3017:A 0

*RES
1 *3320:Y *3093:A 0
2 *3320:Y *3319:A 0
3 *3320:Y *2943:A2 0
4 *3320:Y *2942:A2 0
5 *3320:Y *2955:A2 0
6 *3320:Y *2941:A2 0
7 *3320:Y *2940:A2 0
8 *3320:Y *2960:A2 0
9 *3320:Y *2938:A2 0
10 *3320:Y *2939:A2 0
11 *3320:Y *3085:B 0
12 *3320:Y *3017:A 0
*END

*D_NET *507 0.000000

*CONN
*I *3320:A I *L 0.0006 *D INVx1_ASAP7_75t_L
*I *3100:A I *L 0.0005 *D NOR3xp33_ASAP7_75t_L
*I *3101:B I *L 0.0004 *D NOR2xp33_ASAP7_75t_L
*I *3018:A2 I *L 0.0006 *D AO21x1_ASAP7_75t_L
*I *2949:A2 I *L 0.0006 *D A2O1A1Ixp33_ASAP7_75t_L
*I *2947:A2 I *L 0.0006 *D A2O1A1Ixp33_ASAP7_75t_L
*I *3020:B I *L 0.0005 *D AND2x2_ASAP7_75t_L
*I *3021:B I *L 0.0005 *D AND2x2_ASAP7_75t_L
*I *3077:B I *L 0.0004 *D NOR2xp33_ASAP7_75t_L
*I *3081:B I *L 0.0004 *D NOR2xp33_ASAP7_75t_L
*I *3080:B I *L 0.0004 *D NOR2xp33_ASAP7_75t_L
*I *3075:B I *L 0.0004 *D NOR2xp33_ASAP7_75t_L
*I *2952:A2 I *L 0.0006 *D A2O1A1Ixp33_ASAP7_75t_L
*I *2951:A2 I *L 0.0006 *D A2O1A1Ixp33_ASAP7_75t_L
*I *2950:A2 I *L 0.0006 *D A2O1A1Ixp33_ASAP7_75t_L
*I *3109:Y O *L 0.0000 *D NOR2xp33_ASAP7_75t_L

*CAP
1 *3320:A 0
2 *3100:A 0
3 *3101:B 0
4 *3018:A2 0
5 *2949:A2 0
6 *2947:A2 0
7 *3020:B 0
8 *3021:B 0
9 *3077:B 0
10 *3081:B 0
11 *3080:B 0
12 *3075:B 0
13 *2952:A2 0
14 *2951:A2 0
15 *2950:A2 0

*RES
1 *3109:Y *3320:A 0
2 *3109:Y *3100:A 0
3 *3109:Y *3101:B 0
4 *3109:Y *3018:A2 0
5 *3109:Y *2949:A2 0
6 *3109:Y *2947:A2 0
7 *3109:Y *3020:B 0
8 *3109:Y *3021:B 0
9 *3109:Y *3077:B 0
10 *3109:Y *3081:B 0
11 *3109:Y *3080:B 0
12 *3109:Y *3075:B 0
13 *3109:Y *2952:A2 0
14 *3109:Y *2951:A2 0
15 *3109:Y *2950:A2 0
*END

*D_NET *508 0.000000

*CONN
*I *2877:A2 I *L 0.0006 *D A2O1A1Ixp33_ASAP7_75t_L
*I *2876:A2 I *L 0.0006 *D A2O1A1Ixp33_ASAP7_75t_L
*I *2883:A2 I *L 0.0006 *D A2O1A1Ixp33_ASAP7_75t_L
*I *2879:A2 I *L 0.0006 *D A2O1A1Ixp33_ASAP7_75t_L
*I *2893:A2 I *L 0.0006 *D A2O1A1Ixp33_ASAP7_75t_L
*I *2892:A2 I *L 0.0006 *D A2O1A1Ixp33_ASAP7_75t_L
*I *2895:A2 I *L 0.0006 *D A2O1A1Ixp33_ASAP7_75t_L
*I *2896:A2 I *L 0.0006 *D A2O1A1Ixp33_ASAP7_75t_L
*I *2902:A2 I *L 0.0006 *D A2O1A1Ixp33_ASAP7_75t_L
*I *2870:A2 I *L 0.0006 *D A2O1A1Ixp33_ASAP7_75t_L
*I *2903:A2 I *L 0.0006 *D A2O1A1Ixp33_ASAP7_75t_L
*I *2906:A2 I *L 0.0006 *D A2O1A1Ixp33_ASAP7_75t_L
*I *2875:A2 I *L 0.0006 *D A2O1A1Ixp33_ASAP7_75t_L
*I *2894:A2 I *L 0.0006 *D A2O1A1Ixp33_ASAP7_75t_L
*I *2884:A2 I *L 0.0006 *D A2O1A1Ixp33_ASAP7_75t_L
*I *2885:A2 I *L 0.0006 *D A2O1A1Ixp33_ASAP7_75t_L
*I *2880:A2 I *L 0.0006 *D A2O1A1Ixp33_ASAP7_75t_L
*I *2878:A2 I *L 0.0006 *D A2O1A1Ixp33_ASAP7_75t_L
*I *2899:A2 I *L 0.0006 *D A2O1A1Ixp33_ASAP7_75t_L
*I *2900:A2 I *L 0.0006 *D A2O1A1Ixp33_ASAP7_75t_L
*I *3001:Y O *L 0.0000 *D INVx1_ASAP7_75t_L

*CAP
1 *2877:A2 0
2 *2876:A2 0
3 *2883:A2 0
4 *2879:A2 0
5 *2893:A2 0
6 *2892:A2 0
7 *2895:A2 0
8 *2896:A2 0
9 *2902:A2 0
10 *2870:A2 0
11 *2903:A2 0
12 *2906:A2 0
13 *2875:A2 0
14 *2894:A2 0
15 *2884:A2 0
16 *2885:A2 0
17 *2880:A2 0
18 *2878:A2 0
19 *2899:A2 0
20 *2900:A2 0

*RES
1 *3001:Y *2877:A2 0
2 *3001:Y *2876:A2 0
3 *3001:Y *2883:A2 0
4 *3001:Y *2879:A2 0
5 *3001:Y *2893:A2 0
6 *3001:Y *2892:A2 0
7 *3001:Y *2895:A2 0
8 *3001:Y *2896:A2 0
9 *3001:Y *2902:A2 0
10 *3001:Y *2870:A2 0
11 *3001:Y *2903:A2 0
12 *3001:Y *2906:A2 0
13 *3001:Y *2875:A2 0
14 *3001:Y *2894:A2 0
15 *3001:Y *2884:A2 0
16 *3001:Y *2885:A2 0
17 *3001:Y *2880:A2 0
18 *3001:Y *2878:A2 0
19 *3001:Y *2899:A2 0
20 *3001:Y *2900:A2 0
*END

*D_NET *509 0.000000

*CONN
*I *2872:A2 I *L 0.0006 *D A2O1A1Ixp33_ASAP7_75t_L
*I *2874:A2 I *L 0.0006 *D A2O1A1Ixp33_ASAP7_75t_L
*I *2873:A2 I *L 0.0006 *D A2O1A1Ixp33_ASAP7_75t_L
*I *2869:A2 I *L 0.0006 *D A2O1A1Ixp33_ASAP7_75t_L
*I *2868:A2 I *L 0.0006 *D A2O1A1Ixp33_ASAP7_75t_L
*I *2882:A2 I *L 0.0006 *D A2O1A1Ixp33_ASAP7_75t_L
*I *2881:A2 I *L 0.0006 *D A2O1A1Ixp33_ASAP7_75t_L
*I *2901:A2 I *L 0.0006 *D A2O1A1Ixp33_ASAP7_75t_L
*I *2871:A2 I *L 0.0006 *D A2O1A1Ixp33_ASAP7_75t_L
*I *2891:A2 I *L 0.0006 *D A2O1A1Ixp33_ASAP7_75t_L
*I *2886:A2 I *L 0.0006 *D A2O1A1Ixp33_ASAP7_75t_L
*I *2897:A2 I *L 0.0006 *D A2O1A1Ixp33_ASAP7_75t_L
*I *2898:A2 I *L 0.0006 *D A2O1A1Ixp33_ASAP7_75t_L
*I *2954:B I *L 0.0004 *D NOR2xp33_ASAP7_75t_L
*I *3318:Y O *L 0.0000 *D INVx1_ASAP7_75t_L

*CAP
1 *2872:A2 0
2 *2874:A2 0
3 *2873:A2 0
4 *2869:A2 0
5 *2868:A2 0
6 *2882:A2 0
7 *2881:A2 0
8 *2901:A2 0
9 *2871:A2 0
10 *2891:A2 0
11 *2886:A2 0
12 *2897:A2 0
13 *2898:A2 0
14 *2954:B 0

*RES
1 *3318:Y *2872:A2 0
2 *3318:Y *2874:A2 0
3 *3318:Y *2873:A2 0
4 *3318:Y *2869:A2 0
5 *3318:Y *2868:A2 0
6 *3318:Y *2882:A2 0
7 *3318:Y *2881:A2 0
8 *3318:Y *2901:A2 0
9 *3318:Y *2871:A2 0
10 *3318:Y *2891:A2 0
11 *3318:Y *2886:A2 0
12 *3318:Y *2897:A2 0
13 *3318:Y *2898:A2 0
14 *3318:Y *2954:B 0
*END

*D_NET *510 0.000000

*CONN
*I *3313:A I *L 0.0006 *D INVx1_ASAP7_75t_L
*I *3058:C I *L 0.0006 *D A2O1A1Ixp33_ASAP7_75t_L
*I *2950:C I *L 0.0006 *D A2O1A1Ixp33_ASAP7_75t_L
*I *2931:C I *L 0.0006 *D A2O1A1Ixp33_ASAP7_75t_L
*I *2769:C I *L 0.0006 *D A2O1A1Ixp33_ASAP7_75t_L
*I *2784:C I *L 0.0006 *D A2O1A1Ixp33_ASAP7_75t_L
*I *2789:C I *L 0.0006 *D A2O1A1Ixp33_ASAP7_75t_L
*I *2793:C I *L 0.0006 *D A2O1A1Ixp33_ASAP7_75t_L
*I *3088:C I *L 0.0006 *D A2O1A1Ixp33_ASAP7_75t_L
*I *3027:C I *L 0.0006 *D A2O1A1Ixp33_ASAP7_75t_L
*I *3048:C I *L 0.0006 *D A2O1A1Ixp33_ASAP7_75t_L
*I *2791:C I *L 0.0006 *D A2O1A1Ixp33_ASAP7_75t_L
*I *2772:C I *L 0.0006 *D A2O1A1Ixp33_ASAP7_75t_L
*I *2818:C I *L 0.0006 *D A2O1A1Ixp33_ASAP7_75t_L
*I *2949:C I *L 0.0006 *D A2O1A1Ixp33_ASAP7_75t_L
*I *2766:C I *L 0.0006 *D A2O1A1Ixp33_ASAP7_75t_L
*I *2927:C I *L 0.0006 *D A2O1A1Ixp33_ASAP7_75t_L
*I *3309:Y O *L 0.0000 *D HB1xp67_ASAP7_75t_L

*CAP
1 *3313:A 0
2 *3058:C 0
3 *2950:C 0
4 *2931:C 0
5 *2769:C 0
6 *2784:C 0
7 *2789:C 0
8 *2793:C 0
9 *3088:C 0
10 *3027:C 0
11 *3048:C 0
12 *2791:C 0
13 *2772:C 0
14 *2818:C 0
15 *2949:C 0
16 *2766:C 0
17 *2927:C 0

*RES
1 *3309:Y *3313:A 0
2 *3309:Y *3058:C 0
3 *3309:Y *2950:C 0
4 *3309:Y *2931:C 0
5 *3309:Y *2769:C 0
6 *3309:Y *2784:C 0
7 *3309:Y *2789:C 0
8 *3309:Y *2793:C 0
9 *3309:Y *3088:C 0
10 *3309:Y *3027:C 0
11 *3309:Y *3048:C 0
12 *3309:Y *2791:C 0
13 *3309:Y *2772:C 0
14 *3309:Y *2818:C 0
15 *3309:Y *2949:C 0
16 *3309:Y *2766:C 0
17 *3309:Y *2927:C 0
*END

*D_NET *511 0.000000

*CONN
*I *3317:A I *L 0.0006 *D INVx1_ASAP7_75t_L
*I *3042:C I *L 0.0006 *D A2O1A1Ixp33_ASAP7_75t_L
*I *2923:C I *L 0.0006 *D A2O1A1Ixp33_ASAP7_75t_L
*I *3057:C I *L 0.0006 *D A2O1A1Ixp33_ASAP7_75t_L
*I *2908:C I *L 0.0006 *D A2O1A1Ixp33_ASAP7_75t_L
*I *3052:C I *L 0.0006 *D A2O1A1Ixp33_ASAP7_75t_L
*I *3030:C I *L 0.0006 *D A2O1A1Ixp33_ASAP7_75t_L
*I *3046:C I *L 0.0006 *D A2O1A1Ixp33_ASAP7_75t_L
*I *2903:C I *L 0.0006 *D A2O1A1Ixp33_ASAP7_75t_L
*I *2891:C I *L 0.0006 *D A2O1A1Ixp33_ASAP7_75t_L
*I *3045:C I *L 0.0006 *D A2O1A1Ixp33_ASAP7_75t_L
*I *3050:C I *L 0.0006 *D A2O1A1Ixp33_ASAP7_75t_L
*I *3070:C I *L 0.0006 *D A2O1A1Ixp33_ASAP7_75t_L
*I *2879:C I *L 0.0006 *D A2O1A1Ixp33_ASAP7_75t_L
*I *2898:C I *L 0.0006 *D A2O1A1Ixp33_ASAP7_75t_L
*I *3033:C I *L 0.0006 *D A2O1A1Ixp33_ASAP7_75t_L
*I *2926:C I *L 0.0006 *D A2O1A1Ixp33_ASAP7_75t_L
*I *3308:Y O *L 0.0000 *D HB1xp67_ASAP7_75t_L

*CAP
1 *3317:A 0
2 *3042:C 0
3 *2923:C 0
4 *3057:C 0
5 *2908:C 0
6 *3052:C 0
7 *3030:C 0
8 *3046:C 0
9 *2903:C 0
10 *2891:C 0
11 *3045:C 0
12 *3050:C 0
13 *3070:C 0
14 *2879:C 0
15 *2898:C 0
16 *3033:C 0
17 *2926:C 0

*RES
1 *3308:Y *3317:A 0
2 *3308:Y *3042:C 0
3 *3308:Y *2923:C 0
4 *3308:Y *3057:C 0
5 *3308:Y *2908:C 0
6 *3308:Y *3052:C 0
7 *3308:Y *3030:C 0
8 *3308:Y *3046:C 0
9 *3308:Y *2903:C 0
10 *3308:Y *2891:C 0
11 *3308:Y *3045:C 0
12 *3308:Y *3050:C 0
13 *3308:Y *3070:C 0
14 *3308:Y *2879:C 0
15 *3308:Y *2898:C 0
16 *3308:Y *3033:C 0
17 *3308:Y *2926:C 0
*END

*D_NET *512 0.000000

*CONN
*I *2847:C I *L 0.0005 *D NAND3xp33_ASAP7_75t_L
*I *2848:C I *L 0.0005 *D NAND3xp33_ASAP7_75t_L
*I *2807:B1 I *L 0.0004 *D AO22x1_ASAP7_75t_L
*I *3308:A I *L 0.0003 *D HB1xp67_ASAP7_75t_L
*I *3309:A I *L 0.0003 *D HB1xp67_ASAP7_75t_L
*I *2846:C I *L 0.0005 *D NAND3xp33_ASAP7_75t_L
*I *3329:A I *L 0.0006 *D INVx1_ASAP7_75t_L
*I *2779:B2 I *L 0.0005 *D AOI221xp5_ASAP7_75t_L
*I *3031:C I *L 0.0006 *D A2O1A1Ixp33_ASAP7_75t_L
*I *2947:C I *L 0.0006 *D A2O1A1Ixp33_ASAP7_75t_L
*I *3028:C I *L 0.0006 *D A2O1A1Ixp33_ASAP7_75t_L
*I *2871:C I *L 0.0006 *D A2O1A1Ixp33_ASAP7_75t_L
*I *2892:C I *L 0.0006 *D A2O1A1Ixp33_ASAP7_75t_L
*I *2852:C I *L 0.0006 *D A2O1A1Ixp33_ASAP7_75t_L
*I *2886:C I *L 0.0006 *D A2O1A1Ixp33_ASAP7_75t_L
*I *2860:C I *L 0.0006 *D A2O1A1Ixp33_ASAP7_75t_L
*I *2894:C I *L 0.0006 *D A2O1A1Ixp33_ASAP7_75t_L
*I *2885:C I *L 0.0006 *D A2O1A1Ixp33_ASAP7_75t_L
*I *2895:C I *L 0.0006 *D A2O1A1Ixp33_ASAP7_75t_L
*P *2 I

*CAP
1 *2847:C 0
2 *2848:C 0
3 *2807:B1 0
4 *3308:A 0
5 *3309:A 0
6 *2846:C 0
7 *3329:A 0
8 *2779:B2 0
9 *3031:C 0
10 *2947:C 0
11 *3028:C 0
12 *2871:C 0
13 *2892:C 0
14 *2852:C 0
15 *2886:C 0
16 *2860:C 0
17 *2894:C 0
18 *2885:C 0
19 *2895:C 0

*RES
1 *2 *2847:C 0
2 *2 *2848:C 0
3 *2 *2807:B1 0
4 *2 *3308:A 0
5 *2 *3309:A 0
6 *2 *2846:C 0
7 *2 *3329:A 0
8 *2 *2779:B2 0
9 *2 *3031:C 0
10 *2 *2947:C 0
11 *2 *3028:C 0
12 *2 *2871:C 0
13 *2 *2892:C 0
14 *2 *2852:C 0
15 *2 *2886:C 0
16 *2 *2860:C 0
17 *2 *2894:C 0
18 *2 *2885:C 0
19 *2 *2895:C 0
*END

*D_NET *513 0.000000

*CONN
*I *3212:A1 I *L 0.0006 *D O2A1O1Ixp33_ASAP7_75t_L
*I *2935:A1 I *L 0.0006 *D O2A1O1Ixp33_ASAP7_75t_L
*I *3254:B I *L 0.0005 *D NAND2xp5_ASAP7_75t_L
*I *2485:B I *L 0.0004 *D NOR2xp33_ASAP7_75t_L
*I *2111:write I *L 0.0003 *D srambank_256x4x32_6t122
*I *2112:write I *L 0.0003 *D srambank_256x4x32_6t122
*I *2110:write I *L 0.0003 *D srambank_256x4x32_6t122
*I *2109:write I *L 0.0003 *D srambank_256x4x32_6t122
*I *2108:write I *L 0.0003 *D srambank_256x4x32_6t122
*I *2107:write I *L 0.0003 *D srambank_256x4x32_6t122
*I *2106:write I *L 0.0003 *D srambank_256x4x32_6t122
*I *2105:write I *L 0.0003 *D srambank_256x4x32_6t122
*I *2104:write I *L 0.0003 *D srambank_256x4x32_6t122
*I *2103:write I *L 0.0003 *D srambank_256x4x32_6t122
*I *2102:write I *L 0.0003 *D srambank_256x4x32_6t122
*I *2101:write I *L 0.0003 *D srambank_256x4x32_6t122
*I *2100:write I *L 0.0003 *D srambank_256x4x32_6t122
*I *2099:write I *L 0.0003 *D srambank_256x4x32_6t122
*I *2097:write I *L 0.0003 *D srambank_256x4x32_6t122
*I *2098:write I *L 0.0003 *D srambank_256x4x32_6t122
*I *2541:Y O *L 0.0000 *D INVx1_ASAP7_75t_L

*CAP
1 *3212:A1 0
2 *2935:A1 0
3 *3254:B 0
4 *2485:B 0
5 *2111:write 0
6 *2112:write 0
7 *2110:write 0
8 *2109:write 0
9 *2108:write 0
10 *2107:write 0
11 *2106:write 0
12 *2105:write 0
13 *2104:write 0
14 *2103:write 0
15 *2102:write 0
16 *2101:write 0
17 *2100:write 0
18 *2099:write 0
19 *2097:write 0
20 *2098:write 0

*RES
1 *2541:Y *3212:A1 0
2 *2541:Y *2935:A1 0
3 *2541:Y *3254:B 0
4 *2541:Y *2485:B 0
5 *2541:Y *2111:write 0
6 *2541:Y *2112:write 0
7 *2541:Y *2110:write 0
8 *2541:Y *2109:write 0
9 *2541:Y *2108:write 0
10 *2541:Y *2107:write 0
11 *2541:Y *2106:write 0
12 *2541:Y *2105:write 0
13 *2541:Y *2104:write 0
14 *2541:Y *2103:write 0
15 *2541:Y *2102:write 0
16 *2541:Y *2101:write 0
17 *2541:Y *2100:write 0
18 *2541:Y *2099:write 0
19 *2541:Y *2097:write 0
20 *2541:Y *2098:write 0
*END

*D_NET *514 0.000000

*CONN
*I *3171:B I *L 0.0005 *D NOR3xp33_ASAP7_75t_L
*I *3307:Y O *L 0.0000 *D INVx1_ASAP7_75t_L

*CAP
1 *3171:B 0

*RES
1 *3307:Y *3171:B 0
*END

*D_NET *515 0.000000

*CONN
*I *3093:B I *L 0.0005 *D NOR3xp33_ASAP7_75t_L
*I *3306:Y O *L 0.0000 *D INVx1_ASAP7_75t_L

*CAP
1 *3093:B 0

*RES
1 *3306:Y *3093:B 0
*END

*D_NET *516 0.000000

*CONN
*I *3252:B I *L 0.0005 *D NAND2xp5_ASAP7_75t_L
*I *3305:Y O *L 0.0000 *D INVx1_ASAP7_75t_L

*CAP
1 *3252:B 0

*RES
1 *3305:Y *3252:B 0
*END

*D_NET *517 0.000000

*CONN
*I *3253:B I *L 0.0005 *D NAND2xp5_ASAP7_75t_L
*I *3304:Y O *L 0.0000 *D INVx1_ASAP7_75t_L

*CAP
1 *3253:B 0

*RES
1 *3304:Y *3253:B 0
*END

*D_NET *518 0.000000

*CONN
*I *3108:A I *L 0.0003 *D NOR2xp33_ASAP7_75t_L
*I *3301:Y O *L 0.0000 *D INVxp33_ASAP7_75t_L

*CAP
1 *3108:A 0

*RES
1 *3301:Y *3108:A 0
*END

*D_NET *519 0.000000

*CONN
*I *3218:A I *L 0.0003 *D NOR2xp33_ASAP7_75t_L
*I *3300:Y O *L 0.0000 *D INVxp33_ASAP7_75t_L

*CAP
1 *3218:A 0

*RES
1 *3300:Y *3218:A 0
*END

*D_NET *520 0.000000

*CONN
*I *3256:B I *L 0.0005 *D NAND2xp5_ASAP7_75t_L
*I *3270:B I *L 0.0004 *D NOR2xp33_ASAP7_75t_L
*I *3299:Y O *L 0.0000 *D INVx1_ASAP7_75t_L

*CAP
1 *3256:B 0
2 *3270:B 0

*RES
1 *3299:Y *3256:B 0
2 *3299:Y *3270:B 0
*END

*D_NET *521 0.000000

*CONN
*I *3228:B2 I *L 0.0006 *D AOI22xp5_ASAP7_75t_L
*I *3209:A1 I *L 0.0005 *D OAI221xp5_ASAP7_75t_L
*I *3298:Y O *L 0.0000 *D INVx1_ASAP7_75t_L

*CAP
1 *3228:B2 0
2 *3209:A1 0

*RES
1 *3298:Y *3228:B2 0
2 *3298:Y *3209:A1 0
*END

*D_NET *522 0.000000

*CONN
*I *3213:B1 I *L 0.0005 *D OAI221xp5_ASAP7_75t_L
*I *3297:Y O *L 0.0000 *D INVx1_ASAP7_75t_L

*CAP
1 *3213:B1 0

*RES
1 *3297:Y *3213:B1 0
*END

*D_NET *523 0.000000

*CONN
*I *3206:B1 I *L 0.0005 *D AOI221xp5_ASAP7_75t_L
*I *3104:A I *L 0.0003 *D NOR2xp33_ASAP7_75t_L
*I *3295:Y O *L 0.0000 *D INVx1_ASAP7_75t_L

*CAP
1 *3206:B1 0
2 *3104:A 0

*RES
1 *3295:Y *3206:B1 0
2 *3295:Y *3104:A 0
*END

*D_NET *524 0.000000

*CONN
*I *3106:A I *L 0.0003 *D NOR2xp33_ASAP7_75t_L
*I *3294:Y O *L 0.0000 *D INVx1_ASAP7_75t_L

*CAP
1 *3106:A 0

*RES
1 *3294:Y *3106:A 0
*END

*D_NET *525 0.000000

*CONN
*I *3113:A2 I *L 0.0005 *D OAI221xp5_ASAP7_75t_L
*I *3075:A I *L 0.0003 *D NOR2xp33_ASAP7_75t_L
*I *3293:Y O *L 0.0000 *D INVx1_ASAP7_75t_L

*CAP
1 *3113:A2 0
2 *3075:A 0

*RES
1 *3293:Y *3113:A2 0
2 *3293:Y *3075:A 0
*END

*D_NET *526 0.000000

*CONN
*I *2920:A I *L 0.0003 *D NOR2xp33_ASAP7_75t_L
*I *3292:Y O *L 0.0000 *D INVx1_ASAP7_75t_L

*CAP
1 *2920:A 0

*RES
1 *3292:Y *2920:A 0
*END

*D_NET *527 0.000000

*CONN
*I *3214:A I *L 0.0005 *D NAND2xp5_ASAP7_75t_L
*I *2918:A3 I *L 0.0005 *D OAI311xp33_ASAP7_75t_L
*I *3291:Y O *L 0.0000 *D INVx1_ASAP7_75t_L

*CAP
1 *3214:A 0
2 *2918:A3 0

*RES
1 *3291:Y *3214:A 0
2 *3291:Y *2918:A3 0
*END

*D_NET *528 0.000000

*CONN
*I *3210:A1 I *L 0.0005 *D OAI221xp5_ASAP7_75t_L
*I *3176:A1 I *L 0.0006 *D AO21x1_ASAP7_75t_L
*I *3216:A I *L 0.0003 *D NOR2xp33_ASAP7_75t_L
*I *3290:Y O *L 0.0000 *D INVx1_ASAP7_75t_L

*CAP
1 *3210:A1 0
2 *3176:A1 0
3 *3216:A 0

*RES
1 *3290:Y *3210:A1 0
2 *3290:Y *3176:A1 0
3 *3290:Y *3216:A 0
*END

*D_NET *529 0.000000

*CONN
*I *3107:A I *L 0.0003 *D NOR2xp33_ASAP7_75t_L
*I *3289:Y O *L 0.0000 *D INVx1_ASAP7_75t_L

*CAP
1 *3107:A 0

*RES
1 *3289:Y *3107:A 0
*END

*D_NET *530 0.000000

*CONN
*I *3246:B I *L 0.0009 *D XNOR2xp5_ASAP7_75t_L
*I *3078:A I *L 0.0003 *D NOR2xp33_ASAP7_75t_L
*I *3288:Y O *L 0.0000 *D INVx1_ASAP7_75t_L

*CAP
1 *3246:B 0
2 *3078:A 0

*RES
1 *3288:Y *3246:B 0
2 *3288:Y *3078:A 0
*END

*D_NET *531 0.000000

*CONN
*I *3219:A I *L 0.0003 *D NOR2xp33_ASAP7_75t_L
*I *3287:Y O *L 0.0000 *D INVx1_ASAP7_75t_L

*CAP
1 *3219:A 0

*RES
1 *3287:Y *3219:A 0
*END

*D_NET *532 0.000000

*CONN
*I *3227:B I *L 0.0010 *D XOR2xp5_ASAP7_75t_L
*I *3080:A I *L 0.0003 *D NOR2xp33_ASAP7_75t_L
*I *3286:Y O *L 0.0000 *D INVx1_ASAP7_75t_L

*CAP
1 *3227:B 0
2 *3080:A 0

*RES
1 *3286:Y *3227:B 0
2 *3286:Y *3080:A 0
*END

*D_NET *533 0.000000

*CONN
*I *3248:B I *L 0.0009 *D XNOR2xp5_ASAP7_75t_L
*I *3076:A I *L 0.0003 *D NOR2xp33_ASAP7_75t_L
*I *3285:Y O *L 0.0000 *D INVx1_ASAP7_75t_L

*CAP
1 *3248:B 0
2 *3076:A 0

*RES
1 *3285:Y *3248:B 0
2 *3285:Y *3076:A 0
*END

*D_NET *534 0.000000

*CONN
*I *3228:A2 I *L 0.0006 *D AOI22xp5_ASAP7_75t_L
*I *3213:A1 I *L 0.0005 *D OAI221xp5_ASAP7_75t_L
*I *3284:Y O *L 0.0000 *D INVx1_ASAP7_75t_L

*CAP
1 *3228:A2 0
2 *3213:A1 0

*RES
1 *3284:Y *3228:A2 0
2 *3284:Y *3213:A1 0
*END

*D_NET *535 0.000000

*CONN
*I *2864:A I *L 0.0003 *D NOR2xp33_ASAP7_75t_L
*I *3283:Y O *L 0.0000 *D INVx1_ASAP7_75t_L

*CAP
1 *2864:A 0

*RES
1 *3283:Y *2864:A 0
*END

*D_NET *536 0.000000

*CONN
*I *3014:A I *L 0.0003 *D NOR2xp33_ASAP7_75t_L
*I *3282:Y O *L 0.0000 *D INVx1_ASAP7_75t_L

*CAP
1 *3014:A 0

*RES
1 *3282:Y *3014:A 0
*END

*D_NET *537 0.000000

*CONN
*I *3237:B I *L 0.0009 *D XNOR2xp5_ASAP7_75t_L
*I *3081:A I *L 0.0003 *D NOR2xp33_ASAP7_75t_L
*I *3281:Y O *L 0.0000 *D INVx1_ASAP7_75t_L

*CAP
1 *3237:B 0
2 *3081:A 0

*RES
1 *3281:Y *3237:B 0
2 *3281:Y *3081:A 0
*END

*D_NET *538 0.000000

*CONN
*I *2865:A I *L 0.0003 *D NOR2xp33_ASAP7_75t_L
*I *3280:Y O *L 0.0000 *D INVx1_ASAP7_75t_L

*CAP
1 *2865:A 0

*RES
1 *3280:Y *2865:A 0
*END

*D_NET *539 0.000000

*CONN
*I *3016:A I *L 0.0003 *D NOR2xp33_ASAP7_75t_L
*I *3279:Y O *L 0.0000 *D INVx1_ASAP7_75t_L

*CAP
1 *3016:A 0

*RES
1 *3279:Y *3016:A 0
*END

*D_NET *540 0.000000

*CONN
*I *3210:B1 I *L 0.0005 *D OAI221xp5_ASAP7_75t_L
*I *3077:A I *L 0.0003 *D NOR2xp33_ASAP7_75t_L
*I *3278:Y O *L 0.0000 *D INVx1_ASAP7_75t_L

*CAP
1 *3210:B1 0
2 *3077:A 0

*RES
1 *3278:Y *3210:B1 0
2 *3278:Y *3077:A 0
*END

*D_NET *541 0.000000

*CONN
*I *3206:A1 I *L 0.0005 *D AOI221xp5_ASAP7_75t_L
*I *3083:A I *L 0.0003 *D NOR2xp33_ASAP7_75t_L
*I *3277:Y O *L 0.0000 *D INVx1_ASAP7_75t_L

*CAP
1 *3206:A1 0
2 *3083:A 0

*RES
1 *3277:Y *3206:A1 0
2 *3277:Y *3083:A 0
*END

*D_NET *542 0.000000

*CONN
*I *2921:A I *L 0.0003 *D NOR2xp33_ASAP7_75t_L
*I *3276:Y O *L 0.0000 *D INVx1_ASAP7_75t_L

*CAP
1 *2921:A 0

*RES
1 *3276:Y *2921:A 0
*END

*D_NET *543 0.000000

*CONN
*I *3217:A I *L 0.0003 *D NOR2xp33_ASAP7_75t_L
*I *3275:Y O *L 0.0000 *D INVx1_ASAP7_75t_L

*CAP
1 *3217:A 0

*RES
1 *3275:Y *3217:A 0
*END

*D_NET *544 0.000000

*CONN
*I *3091:B I *L 0.0005 *D NAND3xp33_ASAP7_75t_L
*I *3274:Y O *L 0.0000 *D INVx1_ASAP7_75t_L

*CAP
1 *3091:B 0

*RES
1 *3274:Y *3091:B 0
*END

*D_NET *545 0.000000

*CONN
*I *3209:B1 I *L 0.0005 *D OAI221xp5_ASAP7_75t_L
*I *3273:Y O *L 0.0000 *D INVx1_ASAP7_75t_L

*CAP
1 *3209:B1 0

*RES
1 *3273:Y *3209:B1 0
*END

*D_NET *546 0.000000

*CONN
*I *2854:A2 I *L 0.0005 *D O2A1O1Ixp33_ASAP7_75t_R
*I *3272:Y O *L 0.0000 *D INVx1_ASAP7_75t_L

*CAP
1 *2854:A2 0

*RES
1 *3272:Y *2854:A2 0
*END

*D_NET *547 0.000000

*CONN
*I *3211:B I *L 0.0006 *D A2O1A1Ixp33_ASAP7_75t_L
*I *3265:Y O *L 0.0000 *D NOR2xp33_ASAP7_75t_L

*CAP
1 *3211:B 0

*RES
1 *3265:Y *3211:B 0
*END

*D_NET *548 0.000000

*CONN
*I *2786:B1 I *L 0.0005 *D AOI221xp5_ASAP7_75t_L
*I *3264:Y O *L 0.0000 *D NAND2xp33_ASAP7_75t_L

*CAP
1 *2786:B1 0

*RES
1 *3264:Y *2786:B1 0
*END

*D_NET *549 0.000000

*CONN
*I *3263:A I *L 0.0006 *D INVx1_ASAP7_75t_L
*I *3208:B I *L 0.0009 *D XNOR2xp5_ASAP7_75t_L
*I *3271:Y O *L 0.0000 *D NAND2xp5_ASAP7_75t_L

*CAP
1 *3263:A 0
2 *3208:B 0

*RES
1 *3271:Y *3263:A 0
2 *3271:Y *3208:B 0
*END

*D_NET *550 0.000000

*CONN
*I *3232:B I *L 0.0005 *D NAND2xp5_ASAP7_75t_L
*I *3263:Y O *L 0.0000 *D INVx1_ASAP7_75t_L

*CAP
1 *3232:B 0

*RES
1 *3263:Y *3232:B 0
*END

*D_NET *551 0.000000

*CONN
*I *3262:A I *L 0.0006 *D INVx1_ASAP7_75t_L
*I *3233:B I *L 0.0005 *D NAND2xp5_ASAP7_75t_L
*I *3270:Y O *L 0.0000 *D NOR2xp33_ASAP7_75t_L

*CAP
1 *3262:A 0
2 *3233:B 0

*RES
1 *3270:Y *3262:A 0
2 *3270:Y *3233:B 0
*END

*D_NET *552 0.000000

*CONN
*I *3172:A1 I *L 0.0005 *D OAI211xp5_ASAP7_75t_L
*I *2842:B I *L 0.0006 *D O2A1O1Ixp33_ASAP7_75t_L
*I *3262:Y O *L 0.0000 *D INVx1_ASAP7_75t_L

*CAP
1 *3172:A1 0
2 *2842:B 0

*RES
1 *3262:Y *3172:A1 0
2 *3262:Y *2842:B 0
*END

*D_NET *553 0.000000

*CONN
*I *3261:A I *L 0.0006 *D INVx1_ASAP7_75t_L
*I *3105:A I *L 0.0005 *D NOR4xp25_ASAP7_75t_L
*I *3269:Y O *L 0.0000 *D NOR2xp33_ASAP7_75t_L

*CAP
1 *3261:A 0
2 *3105:A 0

*RES
1 *3269:Y *3261:A 0
2 *3269:Y *3105:A 0
*END

*D_NET *554 0.000000

*CONN
*I *2936:B I *L 0.0006 *D OAI21xp5_ASAP7_75t_L
*I *3261:Y O *L 0.0000 *D INVx1_ASAP7_75t_L

*CAP
1 *2936:B 0

*RES
1 *3261:Y *2936:B 0
*END

*D_NET *555 0.000000

*CONN
*I *3233:A I *L 0.0005 *D NAND2xp5_ASAP7_75t_L
*I *3260:A I *L 0.0003 *D INVxp33_ASAP7_75t_L
*I *3268:Y O *L 0.0000 *D NOR2xp33_ASAP7_75t_L

*CAP
1 *3233:A 0
2 *3260:A 0

*RES
1 *3268:Y *3233:A 0
2 *3268:Y *3260:A 0
*END

*D_NET *556 0.000000

*CONN
*I *3229:B I *L 0.0004 *D NOR2xp33_ASAP7_75t_L
*I *3260:Y O *L 0.0000 *D INVxp33_ASAP7_75t_L

*CAP
1 *3229:B 0

*RES
1 *3260:Y *3229:B 0
*END

*D_NET *557 0.000000

*CONN
*I *3222:B I *L 0.0004 *D NOR2xp33_ASAP7_75t_L
*I *2935:A2 I *L 0.0006 *D O2A1O1Ixp33_ASAP7_75t_L
*I *3267:Y O *L 0.0000 *D NAND2xp5_ASAP7_75t_L

*CAP
1 *3222:B 0
2 *2935:A2 0

*RES
1 *3267:Y *3222:B 0
2 *3267:Y *2935:A2 0
*END

*D_NET *558 0.000000

*CONN
*I *3236:B I *L 0.0004 *D NOR2xp33_ASAP7_75t_L
*I *3172:A2 I *L 0.0005 *D OAI211xp5_ASAP7_75t_L
*I *3266:Y O *L 0.0000 *D NAND2xp5_ASAP7_75t_L

*CAP
1 *3236:B 0
2 *3172:A2 0

*RES
1 *3266:Y *3236:B 0
2 *3266:Y *3172:A2 0
*END

*D_NET *559 0.000000

*CONN
*I *3215:A I *L 0.0005 *D NOR5xp2_ASAP7_75t_L
*I *3253:Y O *L 0.0000 *D NAND2xp5_ASAP7_75t_L

*CAP
1 *3215:A 0

*RES
1 *3253:Y *3215:A 0
*END

*D_NET *560 0.000000

*CONN
*I *3220:A I *L 0.0005 *D NOR5xp2_ASAP7_75t_L
*I *3252:Y O *L 0.0000 *D NAND2xp5_ASAP7_75t_L

*CAP
1 *3220:A 0

*RES
1 *3252:Y *3220:A 0
*END

*D_NET *561 0.000000

*CONN
*I *3251:A I *L 0.0006 *D INVx1_ASAP7_75t_L
*I *2808:A1 I *L 0.0006 *D OAI21xp5_ASAP7_75t_L
*I *3259:Y O *L 0.0000 *D NAND2xp5_ASAP7_75t_L

*CAP
1 *3251:A 0
2 *2808:A1 0

*RES
1 *3259:Y *3251:A 0
2 *3259:Y *2808:A1 0
*END

*D_NET *562 0.000000

*CONN
*I *2809:A1 I *L 0.0005 *D OAI33xp33_ASAP7_75t_L
*I *2806:A3 I *L 0.0005 *D OAI32xp33_ASAP7_75t_L
*I *3011:A1 I *L 0.0006 *D O2A1O1Ixp33_ASAP7_75t_L
*I *3109:A I *L 0.0003 *D NOR2xp33_ASAP7_75t_L
*I *3221:B I *L 0.0005 *D AND2x2_ASAP7_75t_L
*I *3251:Y O *L 0.0000 *D INVx1_ASAP7_75t_L

*CAP
1 *2809:A1 0
2 *2806:A3 0
3 *3011:A1 0
4 *3109:A 0
5 *3221:B 0

*RES
1 *3251:Y *2809:A1 0
2 *3251:Y *2806:A3 0
3 *3251:Y *3011:A1 0
4 *3251:Y *3109:A 0
5 *3251:Y *3221:B 0
*END

*D_NET *563 0.000000

*CONN
*I *3087:A1 I *L 0.0006 *D OAI21xp5_ASAP7_75t_L
*I *2806:B2 I *L 0.0004 *D OAI32xp33_ASAP7_75t_L
*I *3199:A I *L 0.0003 *D NOR2xp33_ASAP7_75t_L
*I *3258:Y O *L 0.0000 *D NAND2xp5_ASAP7_75t_L

*CAP
1 *3087:A1 0
2 *2806:B2 0
3 *3199:A 0

*RES
1 *3258:Y *3087:A1 0
2 *3258:Y *2806:B2 0
3 *3258:Y *3199:A 0
*END

*D_NET *564 0.000000

*CONN
*I *3250:A I *L 0.0006 *D INVx1_ASAP7_75t_L
*I *3207:B I *L 0.0010 *D XOR2xp5_ASAP7_75t_L
*I *3257:Y O *L 0.0000 *D NAND2xp5_ASAP7_75t_L

*CAP
1 *3250:A 0
2 *3207:B 0

*RES
1 *3257:Y *3250:A 0
2 *3257:Y *3207:B 0
*END

*D_NET *565 0.000000

*CONN
*I *3231:B I *L 0.0005 *D NAND2xp5_ASAP7_75t_L
*I *3250:Y O *L 0.0000 *D INVx1_ASAP7_75t_L

*CAP
1 *3231:B 0

*RES
1 *3250:Y *3231:B 0
*END

*D_NET *566 0.000000

*CONN
*I *3234:A I *L 0.0006 *D OR3x1_ASAP7_75t_L
*I *3212:B I *L 0.0006 *D O2A1O1Ixp33_ASAP7_75t_L
*I *3256:Y O *L 0.0000 *D NAND2xp5_ASAP7_75t_L

*CAP
1 *3234:A 0
2 *3212:B 0

*RES
1 *3256:Y *3234:A 0
2 *3256:Y *3212:B 0
*END

*D_NET *567 0.000000

*CONN
*I *3236:A I *L 0.0003 *D NOR2xp33_ASAP7_75t_L
*I *3229:A I *L 0.0003 *D NOR2xp33_ASAP7_75t_L
*I *3255:Y O *L 0.0000 *D NAND2xp5_ASAP7_75t_L

*CAP
1 *3236:A 0
2 *3229:A 0

*RES
1 *3255:Y *3236:A 0
2 *3255:Y *3229:A 0
*END

*D_NET *568 0.000000

*CONN
*I *2918:B1 I *L 0.0005 *D OAI311xp33_ASAP7_75t_L
*I *3172:B I *L 0.0005 *D OAI211xp5_ASAP7_75t_L
*I *3254:Y O *L 0.0000 *D NAND2xp5_ASAP7_75t_L

*CAP
1 *2918:B1 0
2 *3172:B 0

*RES
1 *3254:Y *2918:B1 0
2 *3254:Y *3172:B 0
*END

*D_NET *569 0.000000

*CONN
*I *3214:B I *L 0.0005 *D NAND2xp5_ASAP7_75t_L
*I *3249:Y O *L 0.0000 *D NAND4xp25_ASAP7_75t_L

*CAP
1 *3214:B 0

*RES
1 *3249:Y *3214:B 0
*END

*D_NET *570 0.000000

*CONN
*I *3110:C I *L 0.0005 *D NOR5xp2_ASAP7_75t_L
*I *3248:Y O *L 0.0000 *D XNOR2xp5_ASAP7_75t_L

*CAP
1 *3110:C 0

*RES
1 *3248:Y *3110:C 0
*END

*D_NET *571 0.000000

*CONN
*I *3110:E I *L 0.0005 *D NOR5xp2_ASAP7_75t_L
*I *3247:Y O *L 0.0000 *D XOR2xp5_ASAP7_75t_L

*CAP
1 *3110:E 0

*RES
1 *3247:Y *3110:E 0
*END

*D_NET *572 0.000000

*CONN
*I *3206:C I *L 0.0005 *D AOI221xp5_ASAP7_75t_L
*I *3246:Y O *L 0.0000 *D XNOR2xp5_ASAP7_75t_L

*CAP
1 *3206:C 0

*RES
1 *3246:Y *3206:C 0
*END

*D_NET *573 0.000000

*CONN
*I *3211:C I *L 0.0006 *D A2O1A1Ixp33_ASAP7_75t_L
*I *3245:Y O *L 0.0000 *D XNOR2xp5_ASAP7_75t_L

*CAP
1 *3211:C 0

*RES
1 *3245:Y *3211:C 0
*END

*D_NET *574 0.000000

*CONN
*I *3115:D I *L 0.0005 *D NOR5xp2_ASAP7_75t_L
*I *3244:Y O *L 0.0000 *D XOR2xp5_ASAP7_75t_L

*CAP
1 *3115:D 0

*RES
1 *3244:Y *3115:D 0
*END

*D_NET *575 0.000000

*CONN
*I *3115:E I *L 0.0005 *D NOR5xp2_ASAP7_75t_L
*I *3243:Y O *L 0.0000 *D XOR2xp5_ASAP7_75t_L

*CAP
1 *3115:E 0

*RES
1 *3243:Y *3115:E 0
*END

*D_NET *576 0.000000

*CONN
*I *2959:A2 I *L 0.0006 *D O2A1O1Ixp33_ASAP7_75t_L
*I *3242:Y O *L 0.0000 *D XNOR2xp5_ASAP7_75t_L

*CAP
1 *2959:A2 0

*RES
1 *3242:Y *2959:A2 0
*END

*D_NET *577 0.000000

*CONN
*I *3112:A1 I *L 0.0004 *D AOI22xp33_ASAP7_75t_L
*I *3241:Y O *L 0.0000 *D XOR2xp5_ASAP7_75t_L

*CAP
1 *3112:A1 0

*RES
1 *3241:Y *3112:A1 0
*END

*D_NET *578 0.000000

*CONN
*I *3213:C I *L 0.0005 *D OAI221xp5_ASAP7_75t_L
*I *3240:Y O *L 0.0000 *D XNOR2xp5_ASAP7_75t_L

*CAP
1 *3213:C 0

*RES
1 *3240:Y *3213:C 0
*END

*D_NET *579 0.000000

*CONN
*I *2805:C3 I *L 0.0005 *D AOI333xp33_ASAP7_75t_L
*I *3239:Y O *L 0.0000 *D NOR4xp25_ASAP7_75t_L

*CAP
1 *2805:C3 0

*RES
1 *3239:Y *2805:C3 0
*END

*D_NET *580 0.000000

*CONN
*I *2805:C2 I *L 0.0005 *D AOI333xp33_ASAP7_75t_L
*I *3238:Y O *L 0.0000 *D NOR4xp25_ASAP7_75t_L

*CAP
1 *2805:C2 0

*RES
1 *3238:Y *2805:C2 0
*END

*D_NET *581 0.000000

*CONN
*I *3110:B I *L 0.0005 *D NOR5xp2_ASAP7_75t_L
*I *3237:Y O *L 0.0000 *D XNOR2xp5_ASAP7_75t_L

*CAP
1 *3110:B 0

*RES
1 *3237:Y *3110:B 0
*END

*D_NET *582 0.000000

*CONN
*I *3209:C I *L 0.0005 *D OAI221xp5_ASAP7_75t_L
*I *3228:Y O *L 0.0000 *D AOI22xp5_ASAP7_75t_L

*CAP
1 *3209:C 0

*RES
1 *3228:Y *3209:C 0
*END

*D_NET *583 0.000000

*CONN
*I *3210:C I *L 0.0005 *D OAI221xp5_ASAP7_75t_L
*I *3227:Y O *L 0.0000 *D XOR2xp5_ASAP7_75t_L

*CAP
1 *3210:C 0

*RES
1 *3227:Y *3210:C 0
*END

*D_NET *584 0.000000

*CONN
*I *3175:A I *L 0.0003 *D NOR2xp33_ASAP7_75t_L
*I *3226:Y O *L 0.0000 *D INVx1_ASAP7_75t_L

*CAP
1 *3175:A 0

*RES
1 *3226:Y *3175:A 0
*END

*D_NET *585 0.000000

*CONN
*I *3186:B I *L 0.0005 *D NAND2xp5_ASAP7_75t_L
*I *3194:B I *L 0.0005 *D NAND2xp5_ASAP7_75t_L
*I *3197:B I *L 0.0005 *D NAND2xp5_ASAP7_75t_L
*I *3187:B I *L 0.0005 *D NAND2xp5_ASAP7_75t_L
*I *3198:B I *L 0.0005 *D NAND2xp5_ASAP7_75t_L
*I *3184:B I *L 0.0005 *D NAND2xp5_ASAP7_75t_L
*I *2823:B2 I *L 0.0006 *D AOI22xp5_ASAP7_75t_L
*I *2800:B2 I *L 0.0006 *D AOI22xp5_ASAP7_75t_L
*I *2785:B2 I *L 0.0006 *D AOI22xp5_ASAP7_75t_L
*I *2778:B2 I *L 0.0006 *D AOI22xp5_ASAP7_75t_L
*I *3189:B I *L 0.0005 *D NAND2xp5_ASAP7_75t_L
*I *3188:B I *L 0.0005 *D NAND2xp5_ASAP7_75t_L
*I *3191:B I *L 0.0005 *D NAND2xp5_ASAP7_75t_L
*I *3185:B I *L 0.0005 *D NAND2xp5_ASAP7_75t_L
*I *3190:B I *L 0.0005 *D NAND2xp5_ASAP7_75t_L
*I *3193:B I *L 0.0005 *D NAND2xp5_ASAP7_75t_L
*I *3196:B I *L 0.0005 *D NAND2xp5_ASAP7_75t_L
*I *3195:B I *L 0.0005 *D NAND2xp5_ASAP7_75t_L
*I *3225:Y O *L 0.0000 *D HB1xp67_ASAP7_75t_L

*CAP
1 *3186:B 0
2 *3194:B 0
3 *3197:B 0
4 *3187:B 0
5 *3198:B 0
6 *3184:B 0
7 *2823:B2 0
8 *2800:B2 0
9 *2785:B2 0
10 *2778:B2 0
11 *3189:B 0
12 *3188:B 0
13 *3191:B 0
14 *3185:B 0
15 *3190:B 0
16 *3193:B 0
17 *3196:B 0
18 *3195:B 0

*RES
1 *3225:Y *3186:B 0
2 *3225:Y *3194:B 0
3 *3225:Y *3197:B 0
4 *3225:Y *3187:B 0
5 *3225:Y *3198:B 0
6 *3225:Y *3184:B 0
7 *3225:Y *2823:B2 0
8 *3225:Y *2800:B2 0
9 *3225:Y *2785:B2 0
10 *3225:Y *2778:B2 0
11 *3225:Y *3189:B 0
12 *3225:Y *3188:B 0
13 *3225:Y *3191:B 0
14 *3225:Y *3185:B 0
15 *3225:Y *3190:B 0
16 *3225:Y *3193:B 0
17 *3225:Y *3196:B 0
18 *3225:Y *3195:B 0
*END

*D_NET *586 0.000000

*CONN
*I *3105:C I *L 0.0005 *D NOR4xp25_ASAP7_75t_L
*I *2848:B I *L 0.0005 *D NAND3xp33_ASAP7_75t_L
*I *3224:Y O *L 0.0000 *D INVx1_ASAP7_75t_L

*CAP
1 *3105:C 0
2 *2848:B 0

*RES
1 *3224:Y *3105:C 0
2 *3224:Y *2848:B 0
*END

*D_NET *587 0.000000

*CONN
*I *3224:A I *L 0.0006 *D INVx1_ASAP7_75t_L
*I *2946:A I *L 0.0003 *D NOR2xp33_ASAP7_75t_L
*I *2854:B I *L 0.0006 *D O2A1O1Ixp33_ASAP7_75t_R
*I *3201:A I *L 0.0005 *D NAND2xp5_ASAP7_75t_L
*I *3222:A I *L 0.0003 *D NOR2xp33_ASAP7_75t_L
*I *3233:Y O *L 0.0000 *D NAND2xp5_ASAP7_75t_L

*CAP
1 *3224:A 0
2 *2946:A 0
3 *2854:B 0
4 *3201:A 0
5 *3222:A 0

*RES
1 *3233:Y *3224:A 0
2 *3233:Y *2946:A 0
3 *3233:Y *2854:B 0
4 *3233:Y *3201:A 0
5 *3233:Y *3222:A 0
*END

*D_NET *588 0.000000

*CONN
*I *3113:A1 I *L 0.0005 *D OAI221xp5_ASAP7_75t_L
*I *3223:Y O *L 0.0000 *D INVx1_ASAP7_75t_L

*CAP
1 *3113:A1 0

*RES
1 *3223:Y *3113:A1 0
*END

*D_NET *589 0.000000

*CONN
*I *3219:B I *L 0.0004 *D NOR2xp33_ASAP7_75t_L
*I *3170:B I *L 0.0009 *D XNOR2xp5_ASAP7_75t_L
*I *3232:Y O *L 0.0000 *D NAND2xp5_ASAP7_75t_L

*CAP
1 *3219:B 0
2 *3170:B 0

*RES
1 *3232:Y *3219:B 0
2 *3232:Y *3170:B 0
*END

*D_NET *590 0.000000

*CONN
*I *3217:B I *L 0.0004 *D NOR2xp33_ASAP7_75t_L
*I *3169:B I *L 0.0010 *D XOR2xp5_ASAP7_75t_L
*I *3231:Y O *L 0.0000 *D NAND2xp5_ASAP7_75t_L

*CAP
1 *3217:B 0
2 *3169:B 0

*RES
1 *3231:Y *3217:B 0
2 *3231:Y *3169:B 0
*END

*D_NET *591 0.000000

*CONN
*I *3110:D I *L 0.0005 *D NOR5xp2_ASAP7_75t_L
*I *3113:C I *L 0.0005 *D OAI221xp5_ASAP7_75t_L
*I *3230:Y O *L 0.0000 *D XOR2xp5_ASAP7_75t_L

*CAP
1 *3110:D 0
2 *3113:C 0

*RES
1 *3230:Y *3110:D 0
2 *3230:Y *3113:C 0
*END

*D_NET *592 0.000000

*CONN
*I *3180:A I *L 0.0005 *D NAND3xp33_ASAP7_75t_L
*I *3105:D I *L 0.0005 *D NOR4xp25_ASAP7_75t_L
*I *3229:Y O *L 0.0000 *D NOR2xp33_ASAP7_75t_L

*CAP
1 *3180:A 0
2 *3105:D 0

*RES
1 *3229:Y *3180:A 0
2 *3229:Y *3105:D 0
*END

*D_NET *593 0.000000

*CONN
*I *3115:C I *L 0.0005 *D NOR5xp2_ASAP7_75t_L
*I *3213:Y O *L 0.0000 *D OAI221xp5_ASAP7_75t_L

*CAP
1 *3115:C 0

*RES
1 *3213:Y *3115:C 0
*END

*D_NET *594 0.000000

*CONN
*I *2866:B I *L 0.0005 *D NAND5xp2_ASAP7_75t_L
*I *3212:Y O *L 0.0000 *D O2A1O1Ixp33_ASAP7_75t_L

*CAP
1 *2866:B 0

*RES
1 *3212:Y *2866:B 0
*END

*D_NET *595 0.000000

*CONN
*I *3115:B I *L 0.0005 *D NOR5xp2_ASAP7_75t_L
*I *3211:Y O *L 0.0000 *D A2O1A1Ixp33_ASAP7_75t_L

*CAP
1 *3115:B 0

*RES
1 *3211:Y *3115:B 0
*END

*D_NET *596 0.000000

*CONN
*I *3110:A I *L 0.0005 *D NOR5xp2_ASAP7_75t_L
*I *3210:Y O *L 0.0000 *D OAI221xp5_ASAP7_75t_L

*CAP
1 *3110:A 0

*RES
1 *3210:Y *3110:A 0
*END

*D_NET *597 0.000000

*CONN
*I *3115:A I *L 0.0005 *D NOR5xp2_ASAP7_75t_L
*I *3209:Y O *L 0.0000 *D OAI221xp5_ASAP7_75t_L

*CAP
1 *3115:A 0

*RES
1 *3209:Y *3115:A 0
*END

*D_NET *598 0.000000

*CONN
*I *3102:A1 I *L 0.0004 *D AOI22xp33_ASAP7_75t_L
*I *3208:Y O *L 0.0000 *D XNOR2xp5_ASAP7_75t_L

*CAP
1 *3102:A1 0

*RES
1 *3208:Y *3102:A1 0
*END

*D_NET *599 0.000000

*CONN
*I *2956:A2 I *L 0.0006 *D O2A1O1Ixp33_ASAP7_75t_L
*I *3207:Y O *L 0.0000 *D XOR2xp5_ASAP7_75t_L

*CAP
1 *2956:A2 0

*RES
1 *3207:Y *2956:A2 0
*END

*D_NET *600 0.000000

*CONN
*I *2805:B3 I *L 0.0005 *D AOI333xp33_ASAP7_75t_L
*I *3206:Y O *L 0.0000 *D AOI221xp5_ASAP7_75t_L

*CAP
1 *2805:B3 0

*RES
1 *3206:Y *2805:B3 0
*END

*D_NET *601 0.000000

*CONN
*I *3049:A2 I *L 0.0006 *D A2O1A1Ixp33_ASAP7_75t_L
*I *3037:A2 I *L 0.0006 *D A2O1A1Ixp33_ASAP7_75t_L
*I *3055:A2 I *L 0.0006 *D A2O1A1Ixp33_ASAP7_75t_L
*I *3058:A2 I *L 0.0006 *D A2O1A1Ixp33_ASAP7_75t_L
*I *3041:A2 I *L 0.0006 *D A2O1A1Ixp33_ASAP7_75t_L
*I *2932:A2 I *L 0.0006 *D A2O1A1Ixp33_ASAP7_75t_L
*I *3053:A2 I *L 0.0006 *D A2O1A1Ixp33_ASAP7_75t_L
*I *3057:A2 I *L 0.0006 *D A2O1A1Ixp33_ASAP7_75t_L
*I *3054:A2 I *L 0.0006 *D A2O1A1Ixp33_ASAP7_75t_L
*I *3047:A2 I *L 0.0006 *D A2O1A1Ixp33_ASAP7_75t_L
*I *3032:A2 I *L 0.0006 *D A2O1A1Ixp33_ASAP7_75t_L
*I *3033:A2 I *L 0.0006 *D A2O1A1Ixp33_ASAP7_75t_L
*I *3036:A2 I *L 0.0006 *D A2O1A1Ixp33_ASAP7_75t_L
*I *3048:A2 I *L 0.0006 *D A2O1A1Ixp33_ASAP7_75t_L
*I *3034:A2 I *L 0.0006 *D A2O1A1Ixp33_ASAP7_75t_L
*I *3035:A2 I *L 0.0006 *D A2O1A1Ixp33_ASAP7_75t_L
*I *3074:A2 I *L 0.0006 *D A2O1A1Ixp33_ASAP7_75t_L
*I *3060:A2 I *L 0.0006 *D A2O1A1Ixp33_ASAP7_75t_L
*I *3051:A2 I *L 0.0006 *D A2O1A1Ixp33_ASAP7_75t_L
*I *3056:A2 I *L 0.0006 *D A2O1A1Ixp33_ASAP7_75t_L
*I *3204:Y O *L 0.0000 *D INVx1_ASAP7_75t_L

*CAP
1 *3049:A2 0
2 *3037:A2 0
3 *3055:A2 0
4 *3058:A2 0
5 *3041:A2 0
6 *2932:A2 0
7 *3053:A2 0
8 *3057:A2 0
9 *3054:A2 0
10 *3047:A2 0
11 *3032:A2 0
12 *3033:A2 0
13 *3036:A2 0
14 *3048:A2 0
15 *3034:A2 0
16 *3035:A2 0
17 *3074:A2 0
18 *3060:A2 0
19 *3051:A2 0
20 *3056:A2 0

*RES
1 *3204:Y *3049:A2 0
2 *3204:Y *3037:A2 0
3 *3204:Y *3055:A2 0
4 *3204:Y *3058:A2 0
5 *3204:Y *3041:A2 0
6 *3204:Y *2932:A2 0
7 *3204:Y *3053:A2 0
8 *3204:Y *3057:A2 0
9 *3204:Y *3054:A2 0
10 *3204:Y *3047:A2 0
11 *3204:Y *3032:A2 0
12 *3204:Y *3033:A2 0
13 *3204:Y *3036:A2 0
14 *3204:Y *3048:A2 0
15 *3204:Y *3034:A2 0
16 *3204:Y *3035:A2 0
17 *3204:Y *3074:A2 0
18 *3204:Y *3060:A2 0
19 *3204:Y *3051:A2 0
20 *3204:Y *3056:A2 0
*END

*D_NET *602 0.000000

*CONN
*I *2866:C I *L 0.0005 *D NAND5xp2_ASAP7_75t_L
*I *2859:A2 I *L 0.0004 *D AOI21xp33_ASAP7_75t_L
*I *2918:C1 I *L 0.0005 *D OAI311xp33_ASAP7_75t_L
*I *3061:A2 I *L 0.0006 *D A2O1A1Ixp33_ASAP7_75t_L
*I *3062:A2 I *L 0.0006 *D A2O1A1Ixp33_ASAP7_75t_L
*I *3063:A2 I *L 0.0006 *D A2O1A1Ixp33_ASAP7_75t_L
*I *3064:A2 I *L 0.0006 *D A2O1A1Ixp33_ASAP7_75t_L
*I *3065:A2 I *L 0.0006 *D A2O1A1Ixp33_ASAP7_75t_L
*I *3066:A2 I *L 0.0006 *D A2O1A1Ixp33_ASAP7_75t_L
*I *3067:A2 I *L 0.0006 *D A2O1A1Ixp33_ASAP7_75t_L
*I *3068:A2 I *L 0.0006 *D A2O1A1Ixp33_ASAP7_75t_L
*I *3069:A2 I *L 0.0006 *D A2O1A1Ixp33_ASAP7_75t_L
*I *3070:A2 I *L 0.0006 *D A2O1A1Ixp33_ASAP7_75t_L
*I *3071:A2 I *L 0.0006 *D A2O1A1Ixp33_ASAP7_75t_L
*I *3072:A2 I *L 0.0006 *D A2O1A1Ixp33_ASAP7_75t_L
*I *3073:A2 I *L 0.0006 *D A2O1A1Ixp33_ASAP7_75t_L
*I *3086:A2 I *L 0.0006 *D A2O1A1Ixp33_ASAP7_75t_L
*I *3088:A2 I *L 0.0006 *D A2O1A1Ixp33_ASAP7_75t_L
*I *3171:A I *L 0.0005 *D NOR3xp33_ASAP7_75t_L
*I *3173:B I *L 0.0004 *D NOR2xp33_ASAP7_75t_L
*I *3203:Y O *L 0.0000 *D INVx1_ASAP7_75t_L

*CAP
1 *2866:C 0
2 *2859:A2 0
3 *2918:C1 0
4 *3061:A2 0
5 *3062:A2 0
6 *3063:A2 0
7 *3064:A2 0
8 *3065:A2 0
9 *3066:A2 0
10 *3067:A2 0
11 *3068:A2 0
12 *3069:A2 0
13 *3070:A2 0
14 *3071:A2 0
15 *3072:A2 0
16 *3073:A2 0
17 *3086:A2 0
18 *3088:A2 0
19 *3171:A 0
20 *3173:B 0

*RES
1 *3203:Y *2866:C 0
2 *3203:Y *2859:A2 0
3 *3203:Y *2918:C1 0
4 *3203:Y *3061:A2 0
5 *3203:Y *3062:A2 0
6 *3203:Y *3063:A2 0
7 *3203:Y *3064:A2 0
8 *3203:Y *3065:A2 0
9 *3203:Y *3066:A2 0
10 *3203:Y *3067:A2 0
11 *3203:Y *3068:A2 0
12 *3203:Y *3069:A2 0
13 *3203:Y *3070:A2 0
14 *3203:Y *3071:A2 0
15 *3203:Y *3072:A2 0
16 *3203:Y *3073:A2 0
17 *3203:Y *3086:A2 0
18 *3203:Y *3088:A2 0
19 *3203:Y *3171:A 0
20 *3203:Y *3173:B 0
*END

*D_NET *603 0.000000

*CONN
*I *3203:A I *L 0.0006 *D INVx1_ASAP7_75t_L
*I *2919:A I *L 0.0003 *D NOR2xp33_ASAP7_75t_L
*I *2867:B I *L 0.0006 *D AOI21xp5_ASAP7_75t_L
*I *2937:B I *L 0.0006 *D AOI21xp5_ASAP7_75t_L
*I *3117:B I *L 0.0005 *D AND2x2_ASAP7_75t_L
*I *3126:B I *L 0.0005 *D AND2x2_ASAP7_75t_L
*I *3129:B I *L 0.0005 *D AND2x2_ASAP7_75t_L
*I *3132:B I *L 0.0005 *D AND2x2_ASAP7_75t_L
*I *3135:B I *L 0.0005 *D AND2x2_ASAP7_75t_L
*I *3137:B I *L 0.0005 *D AND2x2_ASAP7_75t_L
*I *3139:B I *L 0.0005 *D AND2x2_ASAP7_75t_L
*I *3140:B I *L 0.0005 *D AND2x2_ASAP7_75t_L
*I *3141:B I *L 0.0005 *D AND2x2_ASAP7_75t_L
*I *3143:B I *L 0.0005 *D AND2x2_ASAP7_75t_L
*I *3146:B I *L 0.0005 *D AND2x2_ASAP7_75t_L
*I *3151:B I *L 0.0005 *D AND2x2_ASAP7_75t_L
*I *3154:B I *L 0.0005 *D AND2x2_ASAP7_75t_L
*I *3221:Y O *L 0.0000 *D AND2x2_ASAP7_75t_L

*CAP
1 *3203:A 0
2 *2919:A 0
3 *2867:B 0
4 *2937:B 0
5 *3117:B 0
6 *3126:B 0
7 *3129:B 0
8 *3132:B 0
9 *3135:B 0
10 *3137:B 0
11 *3139:B 0
12 *3140:B 0
13 *3141:B 0
14 *3143:B 0
15 *3146:B 0
16 *3151:B 0
17 *3154:B 0

*RES
1 *3221:Y *3203:A 0
2 *3221:Y *2919:A 0
3 *3221:Y *2867:B 0
4 *3221:Y *2937:B 0
5 *3221:Y *3117:B 0
6 *3221:Y *3126:B 0
7 *3221:Y *3129:B 0
8 *3221:Y *3132:B 0
9 *3221:Y *3135:B 0
10 *3221:Y *3137:B 0
11 *3221:Y *3139:B 0
12 *3221:Y *3140:B 0
13 *3221:Y *3141:B 0
14 *3221:Y *3143:B 0
15 *3221:Y *3146:B 0
16 *3221:Y *3151:B 0
17 *3221:Y *3154:B 0
*END

*D_NET *604 0.000000

*CONN
*I *3018:A1 I *L 0.0006 *D AO21x1_ASAP7_75t_L
*I *2809:A2 I *L 0.0004 *D OAI33xp33_ASAP7_75t_L
*I *3202:Y O *L 0.0000 *D INVx1_ASAP7_75t_L

*CAP
1 *3018:A1 0
2 *2809:A2 0

*RES
1 *3202:Y *3018:A1 0
2 *3202:Y *2809:A2 0
*END

*D_NET *605 0.000000

*CONN
*I *3202:A I *L 0.0006 *D INVx1_ASAP7_75t_L
*I *3085:A I *L 0.0003 *D NOR2xp33_ASAP7_75t_L
*I *2806:A2 I *L 0.0004 *D OAI32xp33_ASAP7_75t_L
*I *3175:B I *L 0.0004 *D NOR2xp33_ASAP7_75t_L
*I *3220:Y O *L 0.0000 *D NOR5xp2_ASAP7_75t_L

*CAP
1 *3202:A 0
2 *3085:A 0
3 *2806:A2 0
4 *3175:B 0

*RES
1 *3220:Y *3202:A 0
2 *3220:Y *3085:A 0
3 *3220:Y *2806:A2 0
4 *3220:Y *3175:B 0
*END

*D_NET *606 0.000000

*CONN
*I *3178:B I *L 0.0005 *D NAND2xp5_ASAP7_75t_L
*I *3346:B I *L 0.0010 *D XOR2xp5_ASAP7_75t_L
*I *3219:Y O *L 0.0000 *D NOR2xp33_ASAP7_75t_L

*CAP
1 *3178:B 0
2 *3346:B 0

*RES
1 *3219:Y *3178:B 0
2 *3219:Y *3346:B 0
*END

*D_NET *607 0.000000

*CONN
*I *3177:B I *L 0.0005 *D NAND2xp5_ASAP7_75t_L
*I *3345:B I *L 0.0009 *D XNOR2xp5_ASAP7_75t_L
*I *3218:Y O *L 0.0000 *D NOR2xp33_ASAP7_75t_L

*CAP
1 *3177:B 0
2 *3345:B 0

*RES
1 *3218:Y *3177:B 0
2 *3218:Y *3345:B 0
*END

*D_NET *608 0.000000

*CONN
*I *3179:B I *L 0.0005 *D NAND2xp5_ASAP7_75t_L
*I *3344:B I *L 0.0009 *D XNOR2xp5_ASAP7_75t_L
*I *3217:Y O *L 0.0000 *D NOR2xp33_ASAP7_75t_L

*CAP
1 *3179:B 0
2 *3344:B 0

*RES
1 *3217:Y *3179:B 0
2 *3217:Y *3344:B 0
*END

*D_NET *609 0.000000

*CONN
*I *3176:B I *L 0.0006 *D AO21x1_ASAP7_75t_L
*I *3114:A2 I *L 0.0006 *D OAI21xp5_ASAP7_75t_L
*I *3181:B I *L 0.0005 *D NAND2xp5_ASAP7_75t_L
*I *3216:Y O *L 0.0000 *D NOR2xp33_ASAP7_75t_L

*CAP
1 *3176:B 0
2 *3114:A2 0
3 *3181:B 0

*RES
1 *3216:Y *3176:B 0
2 *3216:Y *3114:A2 0
3 *3216:Y *3181:B 0
*END

*D_NET *610 0.000000

*CONN
*I *3173:A I *L 0.0003 *D NOR2xp33_ASAP7_75t_L
*I *2914:A1 I *L 0.0004 *D AOI21xp33_ASAP7_75t_L
*I *3215:Y O *L 0.0000 *D NOR5xp2_ASAP7_75t_L

*CAP
1 *3173:A 0
2 *2914:A1 0

*RES
1 *3215:Y *3173:A 0
2 *3215:Y *2914:A1 0
*END

*D_NET *611 0.000000

*CONN
*I *2804:A1 I *L 0.0004 *D OAI22xp33_ASAP7_75t_L
*I *2773:A1 I *L 0.0005 *D AOI211xp5_ASAP7_75t_L
*I *3214:Y O *L 0.0000 *D NAND2xp5_ASAP7_75t_L

*CAP
1 *2804:A1 0
2 *2773:A1 0

*RES
1 *3214:Y *2804:A1 0
2 *3214:Y *2773:A1 0
*END

*D_NET *612 0.000000

*CONN
*I *2775:B I *L 0.0006 *D O2A1O1Ixp33_ASAP7_75t_L
*I *3198:Y O *L 0.0000 *D NAND2xp5_ASAP7_75t_L

*CAP
1 *2775:B 0

*RES
1 *3198:Y *2775:B 0
*END

*D_NET *613 0.000000

*CONN
*I *2781:B I *L 0.0006 *D O2A1O1Ixp33_ASAP7_75t_L
*I *3197:Y O *L 0.0000 *D NAND2xp5_ASAP7_75t_L

*CAP
1 *2781:B 0

*RES
1 *3197:Y *2781:B 0
*END

*D_NET *614 0.000000

*CONN
*I *2840:B I *L 0.0006 *D O2A1O1Ixp33_ASAP7_75t_L
*I *3196:Y O *L 0.0000 *D NAND2xp5_ASAP7_75t_L

*CAP
1 *2840:B 0

*RES
1 *3196:Y *2840:B 0
*END

*D_NET *615 0.000000

*CONN
*I *2771:B I *L 0.0006 *D O2A1O1Ixp33_ASAP7_75t_L
*I *3195:Y O *L 0.0000 *D NAND2xp5_ASAP7_75t_L

*CAP
1 *2771:B 0

*RES
1 *3195:Y *2771:B 0
*END

*D_NET *616 0.000000

*CONN
*I *2790:B I *L 0.0006 *D O2A1O1Ixp33_ASAP7_75t_L
*I *3194:Y O *L 0.0000 *D NAND2xp5_ASAP7_75t_L

*CAP
1 *2790:B 0

*RES
1 *3194:Y *2790:B 0
*END

*D_NET *617 0.000000

*CONN
*I *2956:B I *L 0.0006 *D O2A1O1Ixp33_ASAP7_75t_L
*I *3193:Y O *L 0.0000 *D NAND2xp5_ASAP7_75t_L

*CAP
1 *2956:B 0

*RES
1 *3193:Y *2956:B 0
*END

*D_NET *618 0.000000

*CONN
*I *2961:B I *L 0.0006 *D O2A1O1Ixp33_ASAP7_75t_L
*I *3192:Y O *L 0.0000 *D NAND2xp5_ASAP7_75t_L

*CAP
1 *2961:B 0

*RES
1 *3192:Y *2961:B 0
*END

*D_NET *619 0.000000

*CONN
*I *2905:B I *L 0.0006 *D O2A1O1Ixp33_ASAP7_75t_L
*I *3191:Y O *L 0.0000 *D NAND2xp5_ASAP7_75t_L

*CAP
1 *2905:B 0

*RES
1 *3191:Y *2905:B 0
*END

*D_NET *620 0.000000

*CONN
*I *2959:B I *L 0.0006 *D O2A1O1Ixp33_ASAP7_75t_L
*I *3190:Y O *L 0.0000 *D NAND2xp5_ASAP7_75t_L

*CAP
1 *2959:B 0

*RES
1 *3190:Y *2959:B 0
*END

*D_NET *621 0.000000

*CONN
*I *2928:B I *L 0.0006 *D O2A1O1Ixp33_ASAP7_75t_L
*I *3189:Y O *L 0.0000 *D NAND2xp5_ASAP7_75t_L

*CAP
1 *2928:B 0

*RES
1 *3189:Y *2928:B 0
*END

*D_NET *622 0.000000

*CONN
*I *2957:B I *L 0.0006 *D O2A1O1Ixp33_ASAP7_75t_L
*I *3188:Y O *L 0.0000 *D NAND2xp5_ASAP7_75t_L

*CAP
1 *2957:B 0

*RES
1 *3188:Y *2957:B 0
*END

*D_NET *623 0.000000

*CONN
*I *2958:B I *L 0.0006 *D O2A1O1Ixp33_ASAP7_75t_L
*I *3187:Y O *L 0.0000 *D NAND2xp5_ASAP7_75t_L

*CAP
1 *2958:B 0

*RES
1 *3187:Y *2958:B 0
*END

*D_NET *624 0.000000

*CONN
*I *2815:B I *L 0.0006 *D O2A1O1Ixp33_ASAP7_75t_L
*I *3186:Y O *L 0.0000 *D NAND2xp5_ASAP7_75t_L

*CAP
1 *2815:B 0

*RES
1 *3186:Y *2815:B 0
*END

*D_NET *625 0.000000

*CONN
*I *2853:B I *L 0.0006 *D O2A1O1Ixp33_ASAP7_75t_L
*I *3185:Y O *L 0.0000 *D NAND2xp5_ASAP7_75t_L

*CAP
1 *2853:B 0

*RES
1 *3185:Y *2853:B 0
*END

*D_NET *626 0.000000

*CONN
*I *2838:B I *L 0.0006 *D O2A1O1Ixp33_ASAP7_75t_L
*I *3184:Y O *L 0.0000 *D NAND2xp5_ASAP7_75t_L

*CAP
1 *2838:B 0

*RES
1 *3184:Y *2838:B 0
*END

*D_NET *627 0.000000

*CONN
*I *2849:B I *L 0.0005 *D NOR3xp33_ASAP7_75t_L
*I *2840:A1 I *L 0.0006 *D O2A1O1Ixp33_ASAP7_75t_L
*I *2850:B I *L 0.0005 *D NOR3xp33_ASAP7_75t_L
*I *2855:B I *L 0.0005 *D NOR3xp33_ASAP7_75t_L
*I *2856:B I *L 0.0005 *D NOR3xp33_ASAP7_75t_L
*I *2857:B I *L 0.0005 *D NOR3xp33_ASAP7_75t_L
*I *2858:B I *L 0.0005 *D NOR3xp33_ASAP7_75t_L
*I *2861:B I *L 0.0005 *D NOR3xp33_ASAP7_75t_L
*I *2862:B I *L 0.0005 *D NOR3xp33_ASAP7_75t_L
*I *3183:Y O *L 0.0000 *D INVx1_ASAP7_75t_L

*CAP
1 *2849:B 0
2 *2840:A1 0
3 *2850:B 0
4 *2855:B 0
5 *2856:B 0
6 *2857:B 0
7 *2858:B 0
8 *2861:B 0
9 *2862:B 0

*RES
1 *3183:Y *2849:B 0
2 *3183:Y *2840:A1 0
3 *3183:Y *2850:B 0
4 *3183:Y *2855:B 0
5 *3183:Y *2856:B 0
6 *3183:Y *2857:B 0
7 *3183:Y *2858:B 0
8 *3183:Y *2861:B 0
9 *3183:Y *2862:B 0
*END

*D_NET *628 0.000000

*CONN
*I *3183:A I *L 0.0006 *D INVx1_ASAP7_75t_L
*I *2785:A1 I *L 0.0005 *D AOI22xp5_ASAP7_75t_L
*I *2778:A1 I *L 0.0005 *D AOI22xp5_ASAP7_75t_L
*I *2800:A1 I *L 0.0005 *D AOI22xp5_ASAP7_75t_L
*I *2823:A1 I *L 0.0005 *D AOI22xp5_ASAP7_75t_L
*I *2843:A2 I *L 0.0004 *D AOI22xp33_ASAP7_75t_L
*I *2851:A2 I *L 0.0004 *D AOI22xp33_ASAP7_75t_L
*I *2912:A2 I *L 0.0004 *D AOI22xp33_ASAP7_75t_L
*I *2929:A2 I *L 0.0004 *D AOI22xp33_ASAP7_75t_L
*I *2935:B I *L 0.0006 *D O2A1O1Ixp33_ASAP7_75t_L
*I *2962:A2 I *L 0.0004 *D AOI22xp33_ASAP7_75t_L
*I *3010:A2 I *L 0.0004 *D AOI22xp33_ASAP7_75t_L
*I *3090:A2 I *L 0.0004 *D AOI22xp33_ASAP7_75t_L
*I *3102:A2 I *L 0.0004 *D AOI22xp33_ASAP7_75t_L
*I *3112:A2 I *L 0.0004 *D AOI22xp33_ASAP7_75t_L
*I *3201:Y O *L 0.0000 *D NAND2xp5_ASAP7_75t_L

*CAP
1 *3183:A 0
2 *2785:A1 0
3 *2778:A1 0
4 *2800:A1 0
5 *2823:A1 0
6 *2843:A2 0
7 *2851:A2 0
8 *2912:A2 0
9 *2929:A2 0
10 *2935:B 0
11 *2962:A2 0
12 *3010:A2 0
13 *3090:A2 0
14 *3102:A2 0
15 *3112:A2 0

*RES
1 *3201:Y *3183:A 0
2 *3201:Y *2785:A1 0
3 *3201:Y *2778:A1 0
4 *3201:Y *2800:A1 0
5 *3201:Y *2823:A1 0
6 *3201:Y *2843:A2 0
7 *3201:Y *2851:A2 0
8 *3201:Y *2912:A2 0
9 *3201:Y *2929:A2 0
10 *3201:Y *2935:B 0
11 *3201:Y *2962:A2 0
12 *3201:Y *3010:A2 0
13 *3201:Y *3090:A2 0
14 *3201:Y *3102:A2 0
15 *3201:Y *3112:A2 0
*END

*D_NET *629 0.000000

*CONN
*I *3174:B I *L 0.0005 *D NAND2xp5_ASAP7_75t_L
*I *3011:B I *L 0.0006 *D O2A1O1Ixp33_ASAP7_75t_L
*I *3200:Y O *L 0.0000 *D AND2x2_ASAP7_75t_L

*CAP
1 *3174:B 0
2 *3011:B 0

*RES
1 *3200:Y *3174:B 0
2 *3200:Y *3011:B 0
*END

*D_NET *630 0.000000

*CONN
*I *3089:B I *L 0.0005 *D OAI211xp5_ASAP7_75t_L
*I *3111:B I *L 0.0005 *D NOR3xp33_ASAP7_75t_L
*I *3199:Y O *L 0.0000 *D NOR2xp33_ASAP7_75t_L

*CAP
1 *3089:B 0
2 *3111:B 0

*RES
1 *3199:Y *3089:B 0
2 *3199:Y *3111:B 0
*END

*D_NET *631 0.000000

*CONN
*I *3088:B I *L 0.0006 *D A2O1A1Ixp33_ASAP7_75t_L
*I *3173:Y O *L 0.0000 *D NOR2xp33_ASAP7_75t_L

*CAP
1 *3088:B 0

*RES
1 *3173:Y *3088:B 0
*END

*D_NET *632 0.000000

*CONN
*I *2807:B2 I *L 0.0004 *D AO22x1_ASAP7_75t_L
*I *3172:Y O *L 0.0000 *D OAI211xp5_ASAP7_75t_L

*CAP
1 *2807:B2 0

*RES
1 *3172:Y *2807:B2 0
*END

*D_NET *633 0.000000

*CONN
*I *3086:B I *L 0.0006 *D A2O1A1Ixp33_ASAP7_75t_L
*I *3171:Y O *L 0.0000 *D NOR3xp33_ASAP7_75t_L

*CAP
1 *3086:B 0

*RES
1 *3171:Y *3086:B 0
*END

*D_NET *634 0.000000

*CONN
*I *3090:A1 I *L 0.0004 *D AOI22xp33_ASAP7_75t_L
*I *3170:Y O *L 0.0000 *D XNOR2xp5_ASAP7_75t_L

*CAP
1 *3090:A1 0

*RES
1 *3170:Y *3090:A1 0
*END

*D_NET *635 0.000000

*CONN
*I *2957:A2 I *L 0.0006 *D O2A1O1Ixp33_ASAP7_75t_L
*I *3169:Y O *L 0.0000 *D XOR2xp5_ASAP7_75t_L

*CAP
1 *2957:A2 0

*RES
1 *3169:Y *2957:A2 0
*END

*D_NET *636 0.000000

*CONN
*I *3033:B I *L 0.0006 *D A2O1A1Ixp33_ASAP7_75t_L
*I *3168:Y O *L 0.0000 *D AND2x2_ASAP7_75t_L

*CAP
1 *3033:B 0

*RES
1 *3168:Y *3033:B 0
*END

*D_NET *637 0.000000

*CONN
*I *3089:C I *L 0.0005 *D OAI211xp5_ASAP7_75t_L
*I *3167:Y O *L 0.0000 *D NAND2xp5_ASAP7_75t_L

*CAP
1 *3089:C 0

*RES
1 *3167:Y *3089:C 0
*END

*D_NET *638 0.000000

*CONN
*I *3050:B I *L 0.0006 *D A2O1A1Ixp33_ASAP7_75t_L
*I *3166:Y O *L 0.0000 *D AND2x2_ASAP7_75t_L

*CAP
1 *3050:B 0

*RES
1 *3166:Y *3050:B 0
*END

*D_NET *639 0.000000

*CONN
*I *3026:B I *L 0.0006 *D A2O1A1Ixp33_ASAP7_75t_L
*I *3165:Y O *L 0.0000 *D AND2x2_ASAP7_75t_L

*CAP
1 *3026:B 0

*RES
1 *3165:Y *3026:B 0
*END

*D_NET *640 0.000000

*CONN
*I *3034:B I *L 0.0006 *D A2O1A1Ixp33_ASAP7_75t_L
*I *3164:Y O *L 0.0000 *D AND2x2_ASAP7_75t_L

*CAP
1 *3034:B 0

*RES
1 *3164:Y *3034:B 0
*END

*D_NET *641 0.000000

*CONN
*I *3025:B I *L 0.0006 *D A2O1A1Ixp33_ASAP7_75t_L
*I *3163:Y O *L 0.0000 *D AND2x2_ASAP7_75t_L

*CAP
1 *3025:B 0

*RES
1 *3163:Y *3025:B 0
*END

*D_NET *642 0.000000

*CONN
*I *3053:B I *L 0.0006 *D A2O1A1Ixp33_ASAP7_75t_L
*I *3162:Y O *L 0.0000 *D AND2x2_ASAP7_75t_L

*CAP
1 *3053:B 0

*RES
1 *3162:Y *3053:B 0
*END

*D_NET *643 0.000000

*CONN
*I *3047:B I *L 0.0006 *D A2O1A1Ixp33_ASAP7_75t_L
*I *3161:Y O *L 0.0000 *D AND2x2_ASAP7_75t_L

*CAP
1 *3047:B 0

*RES
1 *3161:Y *3047:B 0
*END

*D_NET *644 0.000000

*CONN
*I *3044:B I *L 0.0006 *D A2O1A1Ixp33_ASAP7_75t_L
*I *3160:Y O *L 0.0000 *D AND2x2_ASAP7_75t_L

*CAP
1 *3044:B 0

*RES
1 *3160:Y *3044:B 0
*END

*D_NET *645 0.000000

*CONN
*I *3057:B I *L 0.0006 *D A2O1A1Ixp33_ASAP7_75t_L
*I *3159:Y O *L 0.0000 *D AND2x2_ASAP7_75t_L

*CAP
1 *3057:B 0

*RES
1 *3159:Y *3057:B 0
*END

*D_NET *646 0.000000

*CONN
*I *3043:B I *L 0.0006 *D A2O1A1Ixp33_ASAP7_75t_L
*I *3158:Y O *L 0.0000 *D AND2x2_ASAP7_75t_L

*CAP
1 *3043:B 0

*RES
1 *3158:Y *3043:B 0
*END

*D_NET *647 0.000000

*CONN
*I *3055:B I *L 0.0006 *D A2O1A1Ixp33_ASAP7_75t_L
*I *3157:Y O *L 0.0000 *D AND2x2_ASAP7_75t_L

*CAP
1 *3055:B 0

*RES
1 *3157:Y *3055:B 0
*END

*D_NET *648 0.000000

*CONN
*I *3049:B I *L 0.0006 *D A2O1A1Ixp33_ASAP7_75t_L
*I *3156:Y O *L 0.0000 *D AND2x2_ASAP7_75t_L

*CAP
1 *3049:B 0

*RES
1 *3156:Y *3049:B 0
*END

*D_NET *649 0.000000

*CONN
*I *3056:B I *L 0.0006 *D A2O1A1Ixp33_ASAP7_75t_L
*I *3155:Y O *L 0.0000 *D AND2x2_ASAP7_75t_L

*CAP
1 *3056:B 0

*RES
1 *3155:Y *3056:B 0
*END

*D_NET *650 0.000000

*CONN
*I *3064:B I *L 0.0006 *D A2O1A1Ixp33_ASAP7_75t_L
*I *3154:Y O *L 0.0000 *D AND2x2_ASAP7_75t_L

*CAP
1 *3064:B 0

*RES
1 *3154:Y *3064:B 0
*END

*D_NET *651 0.000000

*CONN
*I *2862:C I *L 0.0005 *D NOR3xp33_ASAP7_75t_L
*I *3153:Y O *L 0.0000 *D XOR2xp5_ASAP7_75t_L

*CAP
1 *2862:C 0

*RES
1 *3153:Y *2862:C 0
*END

*D_NET *652 0.000000

*CONN
*I *3058:B I *L 0.0006 *D A2O1A1Ixp33_ASAP7_75t_L
*I *3152:Y O *L 0.0000 *D AND2x2_ASAP7_75t_L

*CAP
1 *3058:B 0

*RES
1 *3152:Y *3058:B 0
*END

*D_NET *653 0.000000

*CONN
*I *3073:B I *L 0.0006 *D A2O1A1Ixp33_ASAP7_75t_L
*I *3151:Y O *L 0.0000 *D AND2x2_ASAP7_75t_L

*CAP
1 *3073:B 0

*RES
1 *3151:Y *3073:B 0
*END

*D_NET *654 0.000000

*CONN
*I *3030:B I *L 0.0006 *D A2O1A1Ixp33_ASAP7_75t_L
*I *3150:Y O *L 0.0000 *D AND2x2_ASAP7_75t_L

*CAP
1 *3030:B 0

*RES
1 *3150:Y *3030:B 0
*END

*D_NET *655 0.000000

*CONN
*I *3094:A2 I *L 0.0005 *D AOI211xp5_ASAP7_75t_L
*I *2922:B I *L 0.0006 *D AOI21xp5_ASAP7_75t_L
*I *3100:B I *L 0.0005 *D NOR3xp33_ASAP7_75t_L
*I *3149:Y O *L 0.0000 *D INVx1_ASAP7_75t_L

*CAP
1 *3094:A2 0
2 *2922:B 0
3 *3100:B 0

*RES
1 *3149:Y *3094:A2 0
2 *3149:Y *2922:B 0
3 *3149:Y *3100:B 0
*END

*D_NET *656 0.000000

*CONN
*I *3149:A I *L 0.0006 *D INVx1_ASAP7_75t_L
*I *3103:B I *L 0.0004 *D NOR2xp33_ASAP7_75t_L
*I *3087:A2 I *L 0.0006 *D OAI21xp5_ASAP7_75t_L
*I *3182:Y O *L 0.0000 *D NAND3xp33_ASAP7_75t_L

*CAP
1 *3149:A 0
2 *3103:B 0
3 *3087:A2 0

*RES
1 *3182:Y *3149:A 0
2 *3182:Y *3103:B 0
3 *3182:Y *3087:A2 0
*END

*D_NET *657 0.000000

*CONN
*I *3104:B I *L 0.0004 *D NOR2xp33_ASAP7_75t_L
*I *3097:B I *L 0.0010 *D XOR2xp5_ASAP7_75t_L
*I *3114:B I *L 0.0006 *D OAI21xp5_ASAP7_75t_L
*I *3181:Y O *L 0.0000 *D NAND2xp5_ASAP7_75t_L

*CAP
1 *3104:B 0
2 *3097:B 0
3 *3114:B 0

*RES
1 *3181:Y *3104:B 0
2 *3181:Y *3097:B 0
3 *3181:Y *3114:B 0
*END

*D_NET *658 0.000000

*CONN
*I *3148:A I *L 0.0006 *D INVx1_ASAP7_75t_L
*I *2866:E I *L 0.0005 *D NAND5xp2_ASAP7_75t_L
*I *3180:Y O *L 0.0000 *D NAND3xp33_ASAP7_75t_L

*CAP
1 *3148:A 0
2 *2866:E 0

*RES
1 *3180:Y *3148:A 0
2 *3180:Y *2866:E 0
*END

*D_NET *659 0.000000

*CONN
*I *3094:B I *L 0.0005 *D AOI211xp5_ASAP7_75t_L
*I *2863:A I *L 0.0003 *D NOR2xp33_ASAP7_75t_L
*I *3148:Y O *L 0.0000 *D INVx1_ASAP7_75t_L

*CAP
1 *3094:B 0
2 *2863:A 0

*RES
1 *3148:Y *3094:B 0
2 *3148:Y *2863:A 0
*END

*D_NET *660 0.000000

*CONN
*I *3106:B I *L 0.0004 *D NOR2xp33_ASAP7_75t_L
*I *3082:B I *L 0.0010 *D XOR2xp5_ASAP7_75t_L
*I *3179:Y O *L 0.0000 *D NAND2xp5_ASAP7_75t_L

*CAP
1 *3106:B 0
2 *3082:B 0

*RES
1 *3179:Y *3106:B 0
2 *3179:Y *3082:B 0
*END

*D_NET *661 0.000000

*CONN
*I *3107:B I *L 0.0004 *D NOR2xp33_ASAP7_75t_L
*I *3092:B I *L 0.0009 *D XNOR2xp5_ASAP7_75t_L
*I *3178:Y O *L 0.0000 *D NAND2xp5_ASAP7_75t_L

*CAP
1 *3107:B 0
2 *3092:B 0

*RES
1 *3178:Y *3107:B 0
2 *3178:Y *3092:B 0
*END

*D_NET *662 0.000000

*CONN
*I *3108:B I *L 0.0004 *D NOR2xp33_ASAP7_75t_L
*I *3084:B I *L 0.0010 *D XOR2xp5_ASAP7_75t_L
*I *3177:Y O *L 0.0000 *D NAND2xp5_ASAP7_75t_L

*CAP
1 *3108:B 0
2 *3084:B 0

*RES
1 *3177:Y *3108:B 0
2 *3177:Y *3084:B 0
*END

*D_NET *663 0.000000

*CONN
*I *3079:B I *L 0.0009 *D XNOR2xp5_ASAP7_75t_L
*I *3003:C I *L 0.0005 *D NOR3xp33_ASAP7_75t_L
*I *3176:Y O *L 0.0000 *D AO21x1_ASAP7_75t_L

*CAP
1 *3079:B 0
2 *3003:C 0

*RES
1 *3176:Y *3079:B 0
2 *3176:Y *3003:C 0
*END

*D_NET *664 0.000000

*CONN
*I *2805:C1 I *L 0.0006 *D AOI333xp33_ASAP7_75t_L
*I *3111:A I *L 0.0005 *D NOR3xp33_ASAP7_75t_L
*I *3175:Y O *L 0.0000 *D NOR2xp33_ASAP7_75t_L

*CAP
1 *2805:C1 0
2 *3111:A 0

*RES
1 *3175:Y *2805:C1 0
2 *3175:Y *3111:A 0
*END

*D_NET *665 0.000000

*CONN
*I *3109:B I *L 0.0004 *D NOR2xp33_ASAP7_75t_L
*I *2866:D I *L 0.0005 *D NAND5xp2_ASAP7_75t_L
*I *3174:Y O *L 0.0000 *D NAND2xp5_ASAP7_75t_L

*CAP
1 *3109:B 0
2 *2866:D 0

*RES
1 *3174:Y *3109:B 0
2 *3174:Y *2866:D 0
*END

*D_NET *666 0.000000

*CONN
*I *3042:B I *L 0.0006 *D A2O1A1Ixp33_ASAP7_75t_L
*I *3147:Y O *L 0.0000 *D AND2x2_ASAP7_75t_L

*CAP
1 *3042:B 0

*RES
1 *3147:Y *3042:B 0
*END

*D_NET *667 0.000000

*CONN
*I *3063:B I *L 0.0006 *D A2O1A1Ixp33_ASAP7_75t_L
*I *3146:Y O *L 0.0000 *D AND2x2_ASAP7_75t_L

*CAP
1 *3063:B 0

*RES
1 *3146:Y *3063:B 0
*END

*D_NET *668 0.000000

*CONN
*I *3046:B I *L 0.0006 *D A2O1A1Ixp33_ASAP7_75t_L
*I *3145:Y O *L 0.0000 *D AND2x2_ASAP7_75t_L

*CAP
1 *3046:B 0

*RES
1 *3145:Y *3046:B 0
*END

*D_NET *669 0.000000

*CONN
*I *3040:B I *L 0.0006 *D A2O1A1Ixp33_ASAP7_75t_L
*I *3144:Y O *L 0.0000 *D AND2x2_ASAP7_75t_L

*CAP
1 *3040:B 0

*RES
1 *3144:Y *3040:B 0
*END

*D_NET *670 0.000000

*CONN
*I *3061:B I *L 0.0006 *D A2O1A1Ixp33_ASAP7_75t_L
*I *3143:Y O *L 0.0000 *D AND2x2_ASAP7_75t_L

*CAP
1 *3061:B 0

*RES
1 *3143:Y *3061:B 0
*END

*D_NET *671 0.000000

*CONN
*I *3035:B I *L 0.0006 *D A2O1A1Ixp33_ASAP7_75t_L
*I *3142:Y O *L 0.0000 *D AND2x2_ASAP7_75t_L

*CAP
1 *3035:B 0

*RES
1 *3142:Y *3035:B 0
*END

*D_NET *672 0.000000

*CONN
*I *3070:B I *L 0.0006 *D A2O1A1Ixp33_ASAP7_75t_L
*I *3141:Y O *L 0.0000 *D AND2x2_ASAP7_75t_L

*CAP
1 *3070:B 0

*RES
1 *3141:Y *3070:B 0
*END

*D_NET *673 0.000000

*CONN
*I *3069:B I *L 0.0006 *D A2O1A1Ixp33_ASAP7_75t_L
*I *3140:Y O *L 0.0000 *D AND2x2_ASAP7_75t_L

*CAP
1 *3069:B 0

*RES
1 *3140:Y *3069:B 0
*END

*D_NET *674 0.000000

*CONN
*I *3066:B I *L 0.0006 *D A2O1A1Ixp33_ASAP7_75t_L
*I *3139:Y O *L 0.0000 *D AND2x2_ASAP7_75t_L

*CAP
1 *3066:B 0

*RES
1 *3139:Y *3066:B 0
*END

*D_NET *675 0.000000

*CONN
*I *3028:B I *L 0.0006 *D A2O1A1Ixp33_ASAP7_75t_L
*I *3138:Y O *L 0.0000 *D AND2x2_ASAP7_75t_L

*CAP
1 *3028:B 0

*RES
1 *3138:Y *3028:B 0
*END

*D_NET *676 0.000000

*CONN
*I *3071:B I *L 0.0006 *D A2O1A1Ixp33_ASAP7_75t_L
*I *3137:Y O *L 0.0000 *D AND2x2_ASAP7_75t_L

*CAP
1 *3071:B 0

*RES
1 *3137:Y *3071:B 0
*END

*D_NET *677 0.000000

*CONN
*I *3051:B I *L 0.0006 *D A2O1A1Ixp33_ASAP7_75t_L
*I *3136:Y O *L 0.0000 *D AND2x2_ASAP7_75t_L

*CAP
1 *3051:B 0

*RES
1 *3136:Y *3051:B 0
*END

*D_NET *678 0.000000

*CONN
*I *3062:B I *L 0.0006 *D A2O1A1Ixp33_ASAP7_75t_L
*I *3135:Y O *L 0.0000 *D AND2x2_ASAP7_75t_L

*CAP
1 *3062:B 0

*RES
1 *3135:Y *3062:B 0
*END

*D_NET *679 0.000000

*CONN
*I *3048:B I *L 0.0006 *D A2O1A1Ixp33_ASAP7_75t_L
*I *3134:Y O *L 0.0000 *D AND2x2_ASAP7_75t_L

*CAP
1 *3048:B 0

*RES
1 *3134:Y *3048:B 0
*END

*D_NET *680 0.000000

*CONN
*I *3032:B I *L 0.0006 *D A2O1A1Ixp33_ASAP7_75t_L
*I *3133:Y O *L 0.0000 *D AND2x2_ASAP7_75t_L

*CAP
1 *3032:B 0

*RES
1 *3133:Y *3032:B 0
*END

*D_NET *681 0.000000

*CONN
*I *3065:B I *L 0.0006 *D A2O1A1Ixp33_ASAP7_75t_L
*I *3132:Y O *L 0.0000 *D AND2x2_ASAP7_75t_L

*CAP
1 *3065:B 0

*RES
1 *3132:Y *3065:B 0
*END

*D_NET *682 0.000000

*CONN
*I *3031:B I *L 0.0006 *D A2O1A1Ixp33_ASAP7_75t_L
*I *3131:Y O *L 0.0000 *D AND2x2_ASAP7_75t_L

*CAP
1 *3031:B 0

*RES
1 *3131:Y *3031:B 0
*END

*D_NET *683 0.000000

*CONN
*I *3074:B I *L 0.0006 *D A2O1A1Ixp33_ASAP7_75t_L
*I *3130:Y O *L 0.0000 *D AND2x2_ASAP7_75t_L

*CAP
1 *3074:B 0

*RES
1 *3130:Y *3074:B 0
*END

*D_NET *684 0.000000

*CONN
*I *3068:B I *L 0.0006 *D A2O1A1Ixp33_ASAP7_75t_L
*I *3129:Y O *L 0.0000 *D AND2x2_ASAP7_75t_L

*CAP
1 *3068:B 0

*RES
1 *3129:Y *3068:B 0
*END

*D_NET *685 0.000000

*CONN
*I *3054:B I *L 0.0006 *D A2O1A1Ixp33_ASAP7_75t_L
*I *3128:Y O *L 0.0000 *D AND2x2_ASAP7_75t_L

*CAP
1 *3054:B 0

*RES
1 *3128:Y *3054:B 0
*END

*D_NET *686 0.000000

*CONN
*I *3041:B I *L 0.0006 *D A2O1A1Ixp33_ASAP7_75t_L
*I *3127:Y O *L 0.0000 *D AND2x2_ASAP7_75t_L

*CAP
1 *3041:B 0

*RES
1 *3127:Y *3041:B 0
*END

*D_NET *687 0.000000

*CONN
*I *3072:B I *L 0.0006 *D A2O1A1Ixp33_ASAP7_75t_L
*I *3126:Y O *L 0.0000 *D AND2x2_ASAP7_75t_L

*CAP
1 *3072:B 0

*RES
1 *3126:Y *3072:B 0
*END

*D_NET *688 0.000000

*CONN
*I *3036:B I *L 0.0006 *D A2O1A1Ixp33_ASAP7_75t_L
*I *3125:Y O *L 0.0000 *D AND2x2_ASAP7_75t_L

*CAP
1 *3036:B 0

*RES
1 *3125:Y *3036:B 0
*END

*D_NET *689 0.000000

*CONN
*I *3038:B I *L 0.0006 *D A2O1A1Ixp33_ASAP7_75t_L
*I *3124:Y O *L 0.0000 *D AND2x2_ASAP7_75t_L

*CAP
1 *3038:B 0

*RES
1 *3124:Y *3038:B 0
*END

*D_NET *690 0.000000

*CONN
*I *3052:B I *L 0.0006 *D A2O1A1Ixp33_ASAP7_75t_L
*I *3123:Y O *L 0.0000 *D AND2x2_ASAP7_75t_L

*CAP
1 *3052:B 0

*RES
1 *3123:Y *3052:B 0
*END

*D_NET *691 0.000000

*CONN
*I *3045:B I *L 0.0006 *D A2O1A1Ixp33_ASAP7_75t_L
*I *3122:Y O *L 0.0000 *D AND2x2_ASAP7_75t_L

*CAP
1 *3045:B 0

*RES
1 *3122:Y *3045:B 0
*END

*D_NET *692 0.000000

*CONN
*I *3037:B I *L 0.0006 *D A2O1A1Ixp33_ASAP7_75t_L
*I *3121:Y O *L 0.0000 *D AND2x2_ASAP7_75t_L

*CAP
1 *3037:B 0

*RES
1 *3121:Y *3037:B 0
*END

*D_NET *693 0.000000

*CONN
*I *3039:B I *L 0.0006 *D A2O1A1Ixp33_ASAP7_75t_L
*I *3120:Y O *L 0.0000 *D AND2x2_ASAP7_75t_L

*CAP
1 *3039:B 0

*RES
1 *3120:Y *3039:B 0
*END

*D_NET *694 0.000000

*CONN
*I *3027:B I *L 0.0006 *D A2O1A1Ixp33_ASAP7_75t_L
*I *3119:Y O *L 0.0000 *D AND2x2_ASAP7_75t_L

*CAP
1 *3027:B 0

*RES
1 *3119:Y *3027:B 0
*END

*D_NET *695 0.000000

*CONN
*I *3029:B I *L 0.0006 *D A2O1A1Ixp33_ASAP7_75t_L
*I *3118:Y O *L 0.0000 *D AND2x2_ASAP7_75t_L

*CAP
1 *3029:B 0

*RES
1 *3118:Y *3029:B 0
*END

*D_NET *696 0.000000

*CONN
*I *3067:B I *L 0.0006 *D A2O1A1Ixp33_ASAP7_75t_L
*I *3117:Y O *L 0.0000 *D AND2x2_ASAP7_75t_L

*CAP
1 *3067:B 0

*RES
1 *3117:Y *3067:B 0
*END

*D_NET *697 0.000000

*CONN
*I *3060:B I *L 0.0006 *D A2O1A1Ixp33_ASAP7_75t_L
*I *3116:Y O *L 0.0000 *D AND2x2_ASAP7_75t_L

*CAP
1 *3060:B 0

*RES
1 *3116:Y *3060:B 0
*END

*D_NET *698 0.000000

*CONN
*I *2916:E I *L 0.0005 *D NOR5xp2_ASAP7_75t_L
*I *3113:Y O *L 0.0000 *D OAI221xp5_ASAP7_75t_L

*CAP
1 *2916:E 0

*RES
1 *3113:Y *2916:E 0
*END

*D_NET *699 0.000000

*CONN
*I *2825:A I *L 0.0003 *D NOR2xp33_ASAP7_75t_L
*I *3112:Y O *L 0.0000 *D AOI22xp33_ASAP7_75t_L

*CAP
1 *2825:A 0

*RES
1 *3112:Y *2825:A 0
*END

*D_NET *700 0.000000

*CONN
*I *3008:A I *L 0.0003 *D NOR2xp33_ASAP7_75t_L
*I *3111:Y O *L 0.0000 *D NOR3xp33_ASAP7_75t_L

*CAP
1 *3008:A 0

*RES
1 *3111:Y *3008:A 0
*END

*D_NET *701 0.000000

*CONN
*I *2805:B2 I *L 0.0005 *D AOI333xp33_ASAP7_75t_L
*I *3110:Y O *L 0.0000 *D NOR5xp2_ASAP7_75t_L

*CAP
1 *2805:B2 0

*RES
1 *3110:Y *2805:B2 0
*END

*D_NET *702 0.000000

*CONN
*I *3059:A I *L 0.0003 *D NOR2xp33_ASAP7_75t_L
*I *3004:A I *L 0.0010 *D XOR2xp5_ASAP7_75t_L
*I *3115:Y O *L 0.0000 *D NOR5xp2_ASAP7_75t_L

*CAP
1 *3059:A 0
2 *3004:A 0

*RES
1 *3115:Y *3059:A 0
2 *3115:Y *3004:A 0
*END

*D_NET *703 0.000000

*CONN
*I *3009:B I *L 0.0009 *D XNOR2xp5_ASAP7_75t_L
*I *3002:C I *L 0.0005 *D NOR3xp33_ASAP7_75t_L
*I *3114:Y O *L 0.0000 *D OAI21xp5_ASAP7_75t_L

*CAP
1 *3009:B 0
2 *3002:C 0

*RES
1 *3114:Y *3009:B 0
2 *3114:Y *3002:C 0
*END

*D_NET *704 0.000000

*CONN
*I *2831:A I *L 0.0003 *D NOR2xp33_ASAP7_75t_L
*I *3102:Y O *L 0.0000 *D AOI22xp33_ASAP7_75t_L

*CAP
1 *2831:A 0

*RES
1 *3102:Y *2831:A 0
*END

*D_NET *705 0.000000

*CONN
*I *3095:B I *L 0.0005 *D NAND2xp5_ASAP7_75t_L
*I *3343:B I *L 0.0009 *D XNOR2xp5_ASAP7_75t_L
*I *3108:Y O *L 0.0000 *D NOR2xp33_ASAP7_75t_L

*CAP
1 *3095:B 0
2 *3343:B 0

*RES
1 *3108:Y *3095:B 0
2 *3108:Y *3343:B 0
*END

*D_NET *706 0.000000

*CONN
*I *3099:B I *L 0.0005 *D NAND2xp5_ASAP7_75t_L
*I *3342:B I *L 0.0010 *D XOR2xp5_ASAP7_75t_L
*I *3107:Y O *L 0.0000 *D NOR2xp33_ASAP7_75t_L

*CAP
1 *3099:B 0
2 *3342:B 0

*RES
1 *3107:Y *3099:B 0
2 *3107:Y *3342:B 0
*END

*D_NET *707 0.000000

*CONN
*I *3096:B I *L 0.0005 *D NAND2xp5_ASAP7_75t_L
*I *3341:B I *L 0.0009 *D XNOR2xp5_ASAP7_75t_L
*I *3106:Y O *L 0.0000 *D NOR2xp33_ASAP7_75t_L

*CAP
1 *3096:B 0
2 *3341:B 0

*RES
1 *3106:Y *3096:B 0
2 *3106:Y *3341:B 0
*END

*D_NET *708 0.000000

*CONN
*I *2859:B I *L 0.0005 *D AOI21xp33_ASAP7_75t_L
*I *2824:A2 I *L 0.0006 *D A2O1A1Ixp33_ASAP7_75t_L
*I *3105:Y O *L 0.0000 *D NOR4xp25_ASAP7_75t_L

*CAP
1 *2859:B 0
2 *2824:A2 0

*RES
1 *3105:Y *2859:B 0
2 *3105:Y *2824:A2 0
*END

*D_NET *709 0.000000

*CONN
*I *3098:B I *L 0.0005 *D NAND2xp5_ASAP7_75t_L
*I *3013:A2 I *L 0.0006 *D OAI21xp5_ASAP7_75t_L
*I *3104:Y O *L 0.0000 *D NOR2xp33_ASAP7_75t_L

*CAP
1 *3098:B 0
2 *3013:A2 0

*RES
1 *3104:Y *3098:B 0
2 *3104:Y *3013:A2 0
*END

*D_NET *710 0.000000

*CONN
*I *3101:A I *L 0.0003 *D NOR2xp33_ASAP7_75t_L
*I *3091:A I *L 0.0005 *D NAND3xp33_ASAP7_75t_L
*I *3103:Y O *L 0.0000 *D NOR2xp33_ASAP7_75t_L

*CAP
1 *3101:A 0
2 *3091:A 0

*RES
1 *3103:Y *3101:A 0
2 *3103:Y *3091:A 0
*END

*D_NET *711 0.000000

*CONN
*I *2998:B I *L 0.0010 *D XOR2xp5_ASAP7_75t_L
*I *3095:Y O *L 0.0000 *D NAND2xp5_ASAP7_75t_L

*CAP
1 *2998:B 0

*RES
1 *3095:Y *2998:B 0
*END

*D_NET *712 0.000000

*CONN
*I *2955:B I *L 0.0006 *D A2O1A1Ixp33_ASAP7_75t_L
*I *3093:Y O *L 0.0000 *D NOR3xp33_ASAP7_75t_L

*CAP
1 *2955:B 0

*RES
1 *3093:Y *2955:B 0
*END

*D_NET *713 0.000000

*CONN
*I *2962:A1 I *L 0.0004 *D AOI22xp33_ASAP7_75t_L
*I *3092:Y O *L 0.0000 *D XNOR2xp5_ASAP7_75t_L

*CAP
1 *2962:A1 0

*RES
1 *3092:Y *2962:A1 0
*END

*D_NET *714 0.000000

*CONN
*I *3017:B I *L 0.0005 *D AND2x2_ASAP7_75t_L
*I *3091:Y O *L 0.0000 *D NAND3xp33_ASAP7_75t_L

*CAP
1 *3017:B 0

*RES
1 *3091:Y *3017:B 0
*END

*D_NET *715 0.000000

*CONN
*I *2829:A I *L 0.0003 *D NOR2xp33_ASAP7_75t_L
*I *3090:Y O *L 0.0000 *D AOI22xp33_ASAP7_75t_L

*CAP
1 *2829:A 0

*RES
1 *3090:Y *2829:A 0
*END

*D_NET *716 0.000000

*CONN
*I *2916:A I *L 0.0005 *D NOR5xp2_ASAP7_75t_L
*I *3089:Y O *L 0.0000 *D OAI211xp5_ASAP7_75t_L

*CAP
1 *2916:A 0

*RES
1 *3089:Y *2916:A 0
*END

*D_NET *717 0.000000

*CONN
*I *2716:D I *L 0.0006 *D DFFHQNx1_ASAP7_75t_L
*I *3088:Y O *L 0.0000 *D A2O1A1Ixp33_ASAP7_75t_L

*CAP
1 *2716:D 0

*RES
1 *3088:Y *2716:D 0
*END

*D_NET *718 0.000000

*CONN
*I *3018:B I *L 0.0006 *D AO21x1_ASAP7_75t_L
*I *3087:Y O *L 0.0000 *D OAI21xp5_ASAP7_75t_L

*CAP
1 *3018:B 0

*RES
1 *3087:Y *3018:B 0
*END

*D_NET *719 0.000000

*CONN
*I *2719:D I *L 0.0006 *D DFFHQNx1_ASAP7_75t_L
*I *3086:Y O *L 0.0000 *D A2O1A1Ixp33_ASAP7_75t_L

*CAP
1 *2719:D 0

*RES
1 *3086:Y *2719:D 0
*END

*D_NET *720 0.000000

*CONN
*I *2960:B I *L 0.0006 *D A2O1A1Ixp33_ASAP7_75t_L
*I *3085:Y O *L 0.0000 *D NOR2xp33_ASAP7_75t_L

*CAP
1 *2960:B 0

*RES
1 *3085:Y *2960:B 0
*END

*D_NET *721 0.000000

*CONN
*I *2857:C I *L 0.0005 *D NOR3xp33_ASAP7_75t_L
*I *3084:Y O *L 0.0000 *D XOR2xp5_ASAP7_75t_L

*CAP
1 *2857:C 0

*RES
1 *3084:Y *2857:C 0
*END

*D_NET *722 0.000000

*CONN
*I *2951:B I *L 0.0006 *D A2O1A1Ixp33_ASAP7_75t_L
*I *3083:Y O *L 0.0000 *D NOR2xp33_ASAP7_75t_L

*CAP
1 *2951:B 0

*RES
1 *3083:Y *2951:B 0
*END

*D_NET *723 0.000000

*CONN
*I *2928:A2 I *L 0.0006 *D O2A1O1Ixp33_ASAP7_75t_L
*I *3082:Y O *L 0.0000 *D XOR2xp5_ASAP7_75t_L

*CAP
1 *2928:A2 0

*RES
1 *3082:Y *2928:A2 0
*END

*D_NET *724 0.000000

*CONN
*I *2953:B I *L 0.0006 *D A2O1A1Ixp33_ASAP7_75t_L
*I *3081:Y O *L 0.0000 *D NOR2xp33_ASAP7_75t_L

*CAP
1 *2953:B 0

*RES
1 *3081:Y *2953:B 0
*END

*D_NET *725 0.000000

*CONN
*I *2952:B I *L 0.0006 *D A2O1A1Ixp33_ASAP7_75t_L
*I *3080:Y O *L 0.0000 *D NOR2xp33_ASAP7_75t_L

*CAP
1 *2952:B 0

*RES
1 *3080:Y *2952:B 0
*END

*D_NET *726 0.000000

*CONN
*I *2916:D I *L 0.0005 *D NOR5xp2_ASAP7_75t_L
*I *3079:Y O *L 0.0000 *D XNOR2xp5_ASAP7_75t_L

*CAP
1 *2916:D 0

*RES
1 *3079:Y *2916:D 0
*END

*D_NET *727 0.000000

*CONN
*I *2950:B I *L 0.0006 *D A2O1A1Ixp33_ASAP7_75t_L
*I *3078:Y O *L 0.0000 *D NOR2xp33_ASAP7_75t_L

*CAP
1 *2950:B 0

*RES
1 *3078:Y *2950:B 0
*END

*D_NET *728 0.000000

*CONN
*I *2949:B I *L 0.0006 *D A2O1A1Ixp33_ASAP7_75t_L
*I *3077:Y O *L 0.0000 *D NOR2xp33_ASAP7_75t_L

*CAP
1 *2949:B 0

*RES
1 *3077:Y *2949:B 0
*END

*D_NET *729 0.000000

*CONN
*I *2948:B I *L 0.0006 *D A2O1A1Ixp33_ASAP7_75t_L
*I *3076:Y O *L 0.0000 *D NOR2xp33_ASAP7_75t_L

*CAP
1 *2948:B 0

*RES
1 *3076:Y *2948:B 0
*END

*D_NET *730 0.000000

*CONN
*I *2947:B I *L 0.0006 *D A2O1A1Ixp33_ASAP7_75t_L
*I *3075:Y O *L 0.0000 *D NOR2xp33_ASAP7_75t_L

*CAP
1 *2947:B 0

*RES
1 *3075:Y *2947:B 0
*END

*D_NET *731 0.000000

*CONN
*I *2758:D I *L 0.0006 *D DFFHQNx1_ASAP7_75t_L
*I *3074:Y O *L 0.0000 *D A2O1A1Ixp33_ASAP7_75t_L

*CAP
1 *2758:D 0

*RES
1 *3074:Y *2758:D 0
*END

*D_NET *732 0.000000

*CONN
*I *2720:D I *L 0.0006 *D DFFHQNx1_ASAP7_75t_L
*I *3073:Y O *L 0.0000 *D A2O1A1Ixp33_ASAP7_75t_L

*CAP
1 *2720:D 0

*RES
1 *3073:Y *2720:D 0
*END

*D_NET *733 0.000000

*CONN
*I *2727:D I *L 0.0006 *D DFFHQNx1_ASAP7_75t_L
*I *3072:Y O *L 0.0000 *D A2O1A1Ixp33_ASAP7_75t_L

*CAP
1 *2727:D 0

*RES
1 *3072:Y *2727:D 0
*END

*D_NET *734 0.000000

*CONN
*I *2726:D I *L 0.0006 *D DFFHQNx1_ASAP7_75t_L
*I *3071:Y O *L 0.0000 *D A2O1A1Ixp33_ASAP7_75t_L

*CAP
1 *2726:D 0

*RES
1 *3071:Y *2726:D 0
*END

*D_NET *735 0.000000

*CONN
*I *2725:D I *L 0.0006 *D DFFHQNx1_ASAP7_75t_L
*I *3070:Y O *L 0.0000 *D A2O1A1Ixp33_ASAP7_75t_L

*CAP
1 *2725:D 0

*RES
1 *3070:Y *2725:D 0
*END

*D_NET *736 0.000000

*CONN
*I *2724:D I *L 0.0006 *D DFFHQNx1_ASAP7_75t_L
*I *3069:Y O *L 0.0000 *D A2O1A1Ixp33_ASAP7_75t_L

*CAP
1 *2724:D 0

*RES
1 *3069:Y *2724:D 0
*END

*D_NET *737 0.000000

*CONN
*I *2723:D I *L 0.0006 *D DFFHQNx1_ASAP7_75t_L
*I *3068:Y O *L 0.0000 *D A2O1A1Ixp33_ASAP7_75t_L

*CAP
1 *2723:D 0

*RES
1 *3068:Y *2723:D 0
*END

*D_NET *738 0.000000

*CONN
*I *2722:D I *L 0.0006 *D DFFHQNx1_ASAP7_75t_L
*I *3067:Y O *L 0.0000 *D A2O1A1Ixp33_ASAP7_75t_L

*CAP
1 *2722:D 0

*RES
1 *3067:Y *2722:D 0
*END

*D_NET *739 0.000000

*CONN
*I *2721:D I *L 0.0006 *D DFFHQNx1_ASAP7_75t_L
*I *3066:Y O *L 0.0000 *D A2O1A1Ixp33_ASAP7_75t_L

*CAP
1 *2721:D 0

*RES
1 *3066:Y *2721:D 0
*END

*D_NET *740 0.000000

*CONN
*I *2651:D I *L 0.0006 *D DFFHQNx1_ASAP7_75t_L
*I *3065:Y O *L 0.0000 *D A2O1A1Ixp33_ASAP7_75t_L

*CAP
1 *2651:D 0

*RES
1 *3065:Y *2651:D 0
*END

*D_NET *741 0.000000

*CONN
*I *2650:D I *L 0.0006 *D DFFHQNx1_ASAP7_75t_L
*I *3064:Y O *L 0.0000 *D A2O1A1Ixp33_ASAP7_75t_L

*CAP
1 *2650:D 0

*RES
1 *3064:Y *2650:D 0
*END

*D_NET *742 0.000000

*CONN
*I *2649:D I *L 0.0006 *D DFFHQNx1_ASAP7_75t_L
*I *3063:Y O *L 0.0000 *D A2O1A1Ixp33_ASAP7_75t_L

*CAP
1 *2649:D 0

*RES
1 *3063:Y *2649:D 0
*END

*D_NET *743 0.000000

*CONN
*I *2648:D I *L 0.0006 *D DFFHQNx1_ASAP7_75t_L
*I *3062:Y O *L 0.0000 *D A2O1A1Ixp33_ASAP7_75t_L

*CAP
1 *2648:D 0

*RES
1 *3062:Y *2648:D 0
*END

*D_NET *744 0.000000

*CONN
*I *2647:D I *L 0.0006 *D DFFHQNx1_ASAP7_75t_L
*I *3061:Y O *L 0.0000 *D A2O1A1Ixp33_ASAP7_75t_L

*CAP
1 *2647:D 0

*RES
1 *3061:Y *2647:D 0
*END

*D_NET *745 0.000000

*CONN
*I *2760:D I *L 0.0006 *D DFFHQNx1_ASAP7_75t_L
*I *3060:Y O *L 0.0000 *D A2O1A1Ixp33_ASAP7_75t_L

*CAP
1 *2760:D 0

*RES
1 *3060:Y *2760:D 0
*END

*D_NET *746 0.000000

*CONN
*I *2995:A I *L 0.0005 *D NOR3xp33_ASAP7_75t_L
*I *3005:A I *L 0.0005 *D NOR3xp33_ASAP7_75t_L
*I *3002:A I *L 0.0005 *D NOR3xp33_ASAP7_75t_L
*I *3003:A I *L 0.0005 *D NOR3xp33_ASAP7_75t_L
*I *2915:A I *L 0.0005 *D NOR3xp33_ASAP7_75t_L
*I *2933:A I *L 0.0005 *D NOR3xp33_ASAP7_75t_L
*I *3012:A I *L 0.0005 *D NOR3xp33_ASAP7_75t_L
*I *3006:A I *L 0.0005 *D NOR3xp33_ASAP7_75t_L
*I *2923:A2 I *L 0.0006 *D A2O1A1Ixp33_ASAP7_75t_L
*I *2904:A2 I *L 0.0006 *D A2O1A1Ixp33_ASAP7_75t_L
*I *2924:A2 I *L 0.0006 *D A2O1A1Ixp33_ASAP7_75t_L
*I *2925:A2 I *L 0.0006 *D A2O1A1Ixp33_ASAP7_75t_L
*I *2931:A2 I *L 0.0006 *D A2O1A1Ixp33_ASAP7_75t_L
*I *2926:A2 I *L 0.0006 *D A2O1A1Ixp33_ASAP7_75t_L
*I *2860:A2 I *L 0.0006 *D A2O1A1Ixp33_ASAP7_75t_L
*I *2830:A2 I *L 0.0006 *D A2O1A1Ixp33_ASAP7_75t_L
*I *3101:Y O *L 0.0000 *D NOR2xp33_ASAP7_75t_L

*CAP
1 *2995:A 0
2 *3005:A 0
3 *3002:A 0
4 *3003:A 0
5 *2915:A 0
6 *2933:A 0
7 *3012:A 0
8 *3006:A 0
9 *2923:A2 0
10 *2904:A2 0
11 *2924:A2 0
12 *2925:A2 0
13 *2931:A2 0
14 *2926:A2 0
15 *2860:A2 0
16 *2830:A2 0

*RES
1 *3101:Y *2995:A 0
2 *3101:Y *3005:A 0
3 *3101:Y *3002:A 0
4 *3101:Y *3003:A 0
5 *3101:Y *2915:A 0
6 *3101:Y *2933:A 0
7 *3101:Y *3012:A 0
8 *3101:Y *3006:A 0
9 *3101:Y *2923:A2 0
10 *3101:Y *2904:A2 0
11 *3101:Y *2924:A2 0
12 *3101:Y *2925:A2 0
13 *3101:Y *2931:A2 0
14 *3101:Y *2926:A2 0
15 *3101:Y *2860:A2 0
16 *3101:Y *2830:A2 0
*END

*D_NET *747 0.000000

*CONN
*I *3008:B I *L 0.0004 *D NOR2xp33_ASAP7_75t_L
*I *2787:A I *L 0.0003 *D NOR2xp33_ASAP7_75t_L
*I *2769:A2 I *L 0.0006 *D A2O1A1Ixp33_ASAP7_75t_L
*I *2934:A2 I *L 0.0006 *D A2O1A1Ixp33_ASAP7_75t_L
*I *3100:Y O *L 0.0000 *D NOR3xp33_ASAP7_75t_L

*CAP
1 *3008:B 0
2 *2787:A 0
3 *2769:A2 0
4 *2934:A2 0

*RES
1 *3100:Y *3008:B 0
2 *3100:Y *2787:A 0
3 *3100:Y *2769:A2 0
4 *3100:Y *2934:A2 0
*END

*D_NET *748 0.000000

*CONN
*I *3016:B I *L 0.0004 *D NOR2xp33_ASAP7_75t_L
*I *2997:B I *L 0.0009 *D XNOR2xp5_ASAP7_75t_L
*I *3099:Y O *L 0.0000 *D NAND2xp5_ASAP7_75t_L

*CAP
1 *3016:B 0
2 *2997:B 0

*RES
1 *3099:Y *3016:B 0
2 *3099:Y *2997:B 0
*END

*D_NET *749 0.000000

*CONN
*I *3000:B I *L 0.0010 *D XOR2xp5_ASAP7_75t_L
*I *3013:B I *L 0.0006 *D OAI21xp5_ASAP7_75t_L
*I *3098:Y O *L 0.0000 *D NAND2xp5_ASAP7_75t_L

*CAP
1 *3000:B 0
2 *3013:B 0

*RES
1 *3098:Y *3000:B 0
2 *3098:Y *3013:B 0
*END

*D_NET *750 0.000000

*CONN
*I *2996:B I *L 0.0009 *D XNOR2xp5_ASAP7_75t_L
*I *2995:C I *L 0.0005 *D NOR3xp33_ASAP7_75t_L
*I *3097:Y O *L 0.0000 *D XOR2xp5_ASAP7_75t_L

*CAP
1 *2996:B 0
2 *2995:C 0

*RES
1 *3097:Y *2996:B 0
2 *3097:Y *2995:C 0
*END

*D_NET *751 0.000000

*CONN
*I *3014:B I *L 0.0004 *D NOR2xp33_ASAP7_75t_L
*I *2999:B I *L 0.0010 *D XOR2xp5_ASAP7_75t_L
*I *3096:Y O *L 0.0000 *D NAND2xp5_ASAP7_75t_L

*CAP
1 *3014:B 0
2 *2999:B 0

*RES
1 *3096:Y *3014:B 0
2 *3096:Y *2999:B 0
*END

*D_NET *752 0.000000

*CONN
*I *3011:C I *L 0.0006 *D O2A1O1Ixp33_ASAP7_75t_L
*I *2927:A2 I *L 0.0006 *D A2O1A1Ixp33_ASAP7_75t_L
*I *3094:Y O *L 0.0000 *D AOI211xp5_ASAP7_75t_L

*CAP
1 *3011:C 0
2 *2927:A2 0

*RES
1 *3094:Y *3011:C 0
2 *3094:Y *2927:A2 0
*END

*D_NET *753 0.000000

*CONN
*I *2752:D I *L 0.0006 *D DFFHQNx1_ASAP7_75t_L
*I *3058:Y O *L 0.0000 *D A2O1A1Ixp33_ASAP7_75t_L

*CAP
1 *2752:D 0

*RES
1 *3058:Y *2752:D 0
*END

*D_NET *754 0.000000

*CONN
*I *2748:D I *L 0.0006 *D DFFHQNx1_ASAP7_75t_L
*I *3057:Y O *L 0.0000 *D A2O1A1Ixp33_ASAP7_75t_L

*CAP
1 *2748:D 0

*RES
1 *3057:Y *2748:D 0
*END

*D_NET *755 0.000000

*CONN
*I *2759:D I *L 0.0006 *D DFFHQNx1_ASAP7_75t_L
*I *3056:Y O *L 0.0000 *D A2O1A1Ixp33_ASAP7_75t_L

*CAP
1 *2759:D 0

*RES
1 *3056:Y *2759:D 0
*END

*D_NET *756 0.000000

*CONN
*I *2757:D I *L 0.0006 *D DFFHQNx1_ASAP7_75t_L
*I *3055:Y O *L 0.0000 *D A2O1A1Ixp33_ASAP7_75t_L

*CAP
1 *2757:D 0

*RES
1 *3055:Y *2757:D 0
*END

*D_NET *757 0.000000

*CONN
*I *2755:D I *L 0.0006 *D DFFHQNx1_ASAP7_75t_L
*I *3054:Y O *L 0.0000 *D A2O1A1Ixp33_ASAP7_75t_L

*CAP
1 *2755:D 0

*RES
1 *3054:Y *2755:D 0
*END

*D_NET *758 0.000000

*CONN
*I *2753:D I *L 0.0006 *D DFFHQNx1_ASAP7_75t_L
*I *3053:Y O *L 0.0000 *D A2O1A1Ixp33_ASAP7_75t_L

*CAP
1 *2753:D 0

*RES
1 *3053:Y *2753:D 0
*END

*D_NET *759 0.000000

*CONN
*I *2751:D I *L 0.0006 *D DFFHQNx1_ASAP7_75t_L
*I *3052:Y O *L 0.0000 *D A2O1A1Ixp33_ASAP7_75t_L

*CAP
1 *2751:D 0

*RES
1 *3052:Y *2751:D 0
*END

*D_NET *760 0.000000

*CONN
*I *2750:D I *L 0.0006 *D DFFHQNx1_ASAP7_75t_L
*I *3051:Y O *L 0.0000 *D A2O1A1Ixp33_ASAP7_75t_L

*CAP
1 *2750:D 0

*RES
1 *3051:Y *2750:D 0
*END

*D_NET *761 0.000000

*CONN
*I *2747:D I *L 0.0006 *D DFFHQNx1_ASAP7_75t_L
*I *3050:Y O *L 0.0000 *D A2O1A1Ixp33_ASAP7_75t_L

*CAP
1 *2747:D 0

*RES
1 *3050:Y *2747:D 0
*END

*D_NET *762 0.000000

*CONN
*I *2745:D I *L 0.0006 *D DFFHQNx1_ASAP7_75t_L
*I *3049:Y O *L 0.0000 *D A2O1A1Ixp33_ASAP7_75t_L

*CAP
1 *2745:D 0

*RES
1 *3049:Y *2745:D 0
*END

*D_NET *763 0.000000

*CONN
*I *2743:D I *L 0.0006 *D DFFHQNx1_ASAP7_75t_L
*I *3048:Y O *L 0.0000 *D A2O1A1Ixp33_ASAP7_75t_L

*CAP
1 *2743:D 0

*RES
1 *3048:Y *2743:D 0
*END

*D_NET *764 0.000000

*CONN
*I *2742:D I *L 0.0006 *D DFFHQNx1_ASAP7_75t_L
*I *3047:Y O *L 0.0000 *D A2O1A1Ixp33_ASAP7_75t_L

*CAP
1 *2742:D 0

*RES
1 *3047:Y *2742:D 0
*END

*D_NET *765 0.000000

*CONN
*I *2741:D I *L 0.0006 *D DFFHQNx1_ASAP7_75t_L
*I *3046:Y O *L 0.0000 *D A2O1A1Ixp33_ASAP7_75t_L

*CAP
1 *2741:D 0

*RES
1 *3046:Y *2741:D 0
*END

*D_NET *766 0.000000

*CONN
*I *2740:D I *L 0.0006 *D DFFHQNx1_ASAP7_75t_L
*I *3045:Y O *L 0.0000 *D A2O1A1Ixp33_ASAP7_75t_L

*CAP
1 *2740:D 0

*RES
1 *3045:Y *2740:D 0
*END

*D_NET *767 0.000000

*CONN
*I *2738:D I *L 0.0006 *D DFFHQNx1_ASAP7_75t_L
*I *3044:Y O *L 0.0000 *D A2O1A1Ixp33_ASAP7_75t_L

*CAP
1 *2738:D 0

*RES
1 *3044:Y *2738:D 0
*END

*D_NET *768 0.000000

*CONN
*I *2737:D I *L 0.0006 *D DFFHQNx1_ASAP7_75t_L
*I *3043:Y O *L 0.0000 *D A2O1A1Ixp33_ASAP7_75t_L

*CAP
1 *2737:D 0

*RES
1 *3043:Y *2737:D 0
*END

*D_NET *769 0.000000

*CONN
*I *2749:D I *L 0.0006 *D DFFHQNx1_ASAP7_75t_L
*I *3042:Y O *L 0.0000 *D A2O1A1Ixp33_ASAP7_75t_L

*CAP
1 *2749:D 0

*RES
1 *3042:Y *2749:D 0
*END

*D_NET *770 0.000000

*CONN
*I *2736:D I *L 0.0006 *D DFFHQNx1_ASAP7_75t_L
*I *3041:Y O *L 0.0000 *D A2O1A1Ixp33_ASAP7_75t_L

*CAP
1 *2736:D 0

*RES
1 *3041:Y *2736:D 0
*END

*D_NET *771 0.000000

*CONN
*I *2735:D I *L 0.0006 *D DFFHQNx1_ASAP7_75t_L
*I *3040:Y O *L 0.0000 *D A2O1A1Ixp33_ASAP7_75t_L

*CAP
1 *2735:D 0

*RES
1 *3040:Y *2735:D 0
*END

*D_NET *772 0.000000

*CONN
*I *2734:D I *L 0.0006 *D DFFHQNx1_ASAP7_75t_L
*I *3039:Y O *L 0.0000 *D A2O1A1Ixp33_ASAP7_75t_L

*CAP
1 *2734:D 0

*RES
1 *3039:Y *2734:D 0
*END

*D_NET *773 0.000000

*CONN
*I *2732:D I *L 0.0006 *D DFFHQNx1_ASAP7_75t_L
*I *3038:Y O *L 0.0000 *D A2O1A1Ixp33_ASAP7_75t_L

*CAP
1 *2732:D 0

*RES
1 *3038:Y *2732:D 0
*END

*D_NET *774 0.000000

*CONN
*I *2731:D I *L 0.0006 *D DFFHQNx1_ASAP7_75t_L
*I *3037:Y O *L 0.0000 *D A2O1A1Ixp33_ASAP7_75t_L

*CAP
1 *2731:D 0

*RES
1 *3037:Y *2731:D 0
*END

*D_NET *775 0.000000

*CONN
*I *2730:D I *L 0.0006 *D DFFHQNx1_ASAP7_75t_L
*I *3036:Y O *L 0.0000 *D A2O1A1Ixp33_ASAP7_75t_L

*CAP
1 *2730:D 0

*RES
1 *3036:Y *2730:D 0
*END

*D_NET *776 0.000000

*CONN
*I *2729:D I *L 0.0006 *D DFFHQNx1_ASAP7_75t_L
*I *3035:Y O *L 0.0000 *D A2O1A1Ixp33_ASAP7_75t_L

*CAP
1 *2729:D 0

*RES
1 *3035:Y *2729:D 0
*END

*D_NET *777 0.000000

*CONN
*I *2728:D I *L 0.0006 *D DFFHQNx1_ASAP7_75t_L
*I *3034:Y O *L 0.0000 *D A2O1A1Ixp33_ASAP7_75t_L

*CAP
1 *2728:D 0

*RES
1 *3034:Y *2728:D 0
*END

*D_NET *778 0.000000

*CONN
*I *2739:D I *L 0.0006 *D DFFHQNx1_ASAP7_75t_L
*I *3033:Y O *L 0.0000 *D A2O1A1Ixp33_ASAP7_75t_L

*CAP
1 *2739:D 0

*RES
1 *3033:Y *2739:D 0
*END

*D_NET *779 0.000000

*CONN
*I *2762:D I *L 0.0006 *D DFFHQNx1_ASAP7_75t_L
*I *3032:Y O *L 0.0000 *D A2O1A1Ixp33_ASAP7_75t_L

*CAP
1 *2762:D 0

*RES
1 *3032:Y *2762:D 0
*END

*D_NET *780 0.000000

*CONN
*I *2761:D I *L 0.0006 *D DFFHQNx1_ASAP7_75t_L
*I *3031:Y O *L 0.0000 *D A2O1A1Ixp33_ASAP7_75t_L

*CAP
1 *2761:D 0

*RES
1 *3031:Y *2761:D 0
*END

*D_NET *781 0.000000

*CONN
*I *2756:D I *L 0.0006 *D DFFHQNx1_ASAP7_75t_L
*I *3030:Y O *L 0.0000 *D A2O1A1Ixp33_ASAP7_75t_L

*CAP
1 *2756:D 0

*RES
1 *3030:Y *2756:D 0
*END

*D_NET *782 0.000000

*CONN
*I *2754:D I *L 0.0006 *D DFFHQNx1_ASAP7_75t_L
*I *3029:Y O *L 0.0000 *D A2O1A1Ixp33_ASAP7_75t_L

*CAP
1 *2754:D 0

*RES
1 *3029:Y *2754:D 0
*END

*D_NET *783 0.000000

*CONN
*I *2733:D I *L 0.0006 *D DFFHQNx1_ASAP7_75t_L
*I *3028:Y O *L 0.0000 *D A2O1A1Ixp33_ASAP7_75t_L

*CAP
1 *2733:D 0

*RES
1 *3028:Y *2733:D 0
*END

*D_NET *784 0.000000

*CONN
*I *2746:D I *L 0.0006 *D DFFHQNx1_ASAP7_75t_L
*I *3027:Y O *L 0.0000 *D A2O1A1Ixp33_ASAP7_75t_L

*CAP
1 *2746:D 0

*RES
1 *3027:Y *2746:D 0
*END

*D_NET *785 0.000000

*CONN
*I *2744:D I *L 0.0006 *D DFFHQNx1_ASAP7_75t_L
*I *3026:Y O *L 0.0000 *D A2O1A1Ixp33_ASAP7_75t_L

*CAP
1 *2744:D 0

*RES
1 *3026:Y *2744:D 0
*END

*D_NET *786 0.000000

*CONN
*I *2763:D I *L 0.0006 *D DFFHQNx1_ASAP7_75t_L
*I *3025:Y O *L 0.0000 *D A2O1A1Ixp33_ASAP7_75t_L

*CAP
1 *2763:D 0

*RES
1 *3025:Y *2763:D 0
*END

*D_NET *787 0.000000

*CONN
*I *2943:B I *L 0.0006 *D A2O1A1Ixp33_ASAP7_75t_L
*I *3024:Y O *L 0.0000 *D AND2x2_ASAP7_75t_L

*CAP
1 *2943:B 0

*RES
1 *3024:Y *2943:B 0
*END

*D_NET *788 0.000000

*CONN
*I *2942:B I *L 0.0006 *D A2O1A1Ixp33_ASAP7_75t_L
*I *3023:Y O *L 0.0000 *D AND2x2_ASAP7_75t_L

*CAP
1 *2942:B 0

*RES
1 *3023:Y *2942:B 0
*END

*D_NET *789 0.000000

*CONN
*I *2941:B I *L 0.0006 *D A2O1A1Ixp33_ASAP7_75t_L
*I *3022:Y O *L 0.0000 *D AND2x2_ASAP7_75t_L

*CAP
1 *2941:B 0

*RES
1 *3022:Y *2941:B 0
*END

*D_NET *790 0.000000

*CONN
*I *2940:B I *L 0.0006 *D A2O1A1Ixp33_ASAP7_75t_L
*I *3021:Y O *L 0.0000 *D AND2x2_ASAP7_75t_L

*CAP
1 *2940:B 0

*RES
1 *3021:Y *2940:B 0
*END

*D_NET *791 0.000000

*CONN
*I *2939:B I *L 0.0006 *D A2O1A1Ixp33_ASAP7_75t_L
*I *3020:Y O *L 0.0000 *D AND2x2_ASAP7_75t_L

*CAP
1 *2939:B 0

*RES
1 *3020:Y *2939:B 0
*END

*D_NET *792 0.000000

*CONN
*I *2938:B I *L 0.0006 *D A2O1A1Ixp33_ASAP7_75t_L
*I *3019:Y O *L 0.0000 *D AND2x2_ASAP7_75t_L

*CAP
1 *2938:B 0

*RES
1 *3019:Y *2938:B 0
*END

*D_NET *793 0.000000

*CONN
*I *3007:A I *L 0.0003 *D NOR2xp33_ASAP7_75t_L
*I *2918:A2 I *L 0.0005 *D OAI311xp33_ASAP7_75t_L
*I *3015:B I *L 0.0005 *D NAND2xp5_ASAP7_75t_L
*I *3059:Y O *L 0.0000 *D NOR2xp33_ASAP7_75t_L

*CAP
1 *3007:A 0
2 *2918:A2 0
3 *3015:B 0

*RES
1 *3059:Y *3007:A 0
2 *3059:Y *2918:A2 0
3 *3059:Y *3015:B 0
*END

*D_NET *794 0.000000

*CONN
*I *2924:B I *L 0.0006 *D A2O1A1Ixp33_ASAP7_75t_L
*I *3012:Y O *L 0.0000 *D NOR3xp33_ASAP7_75t_L

*CAP
1 *2924:B 0

*RES
1 *3012:Y *2924:B 0
*END

*D_NET *795 0.000000

*CONN
*I *2927:B I *L 0.0006 *D A2O1A1Ixp33_ASAP7_75t_L
*I *3011:Y O *L 0.0000 *D O2A1O1Ixp33_ASAP7_75t_L

*CAP
1 *2927:B 0

*RES
1 *3011:Y *2927:B 0
*END

*D_NET *796 0.000000

*CONN
*I *2828:A I *L 0.0003 *D NOR2xp33_ASAP7_75t_L
*I *3010:Y O *L 0.0000 *D AOI22xp33_ASAP7_75t_L

*CAP
1 *2828:A 0

*RES
1 *3010:Y *2828:A 0
*END

*D_NET *797 0.000000

*CONN
*I *2916:C I *L 0.0005 *D NOR5xp2_ASAP7_75t_L
*I *3009:Y O *L 0.0000 *D XNOR2xp5_ASAP7_75t_L

*CAP
1 *2916:C 0

*RES
1 *3009:Y *2916:C 0
*END

*D_NET *798 0.000000

*CONN
*I *2934:B I *L 0.0006 *D A2O1A1Ixp33_ASAP7_75t_L
*I *3008:Y O *L 0.0000 *D NOR2xp33_ASAP7_75t_L

*CAP
1 *2934:B 0

*RES
1 *3008:Y *2934:B 0
*END

*D_NET *799 0.000000

*CONN
*I *2932:B I *L 0.0006 *D A2O1A1Ixp33_ASAP7_75t_L
*I *3007:Y O *L 0.0000 *D NOR2xp33_ASAP7_75t_L

*CAP
1 *2932:B 0

*RES
1 *3007:Y *2932:B 0
*END

*D_NET *800 0.000000

*CONN
*I *2931:B I *L 0.0006 *D A2O1A1Ixp33_ASAP7_75t_L
*I *3006:Y O *L 0.0000 *D NOR3xp33_ASAP7_75t_L

*CAP
1 *2931:B 0

*RES
1 *3006:Y *2931:B 0
*END

*D_NET *801 0.000000

*CONN
*I *2925:B I *L 0.0006 *D A2O1A1Ixp33_ASAP7_75t_L
*I *3005:Y O *L 0.0000 *D NOR3xp33_ASAP7_75t_L

*CAP
1 *2925:B 0

*RES
1 *3005:Y *2925:B 0
*END

*D_NET *802 0.000000

*CONN
*I *2937:A2 I *L 0.0005 *D AOI21xp5_ASAP7_75t_L
*I *3004:Y O *L 0.0000 *D XOR2xp5_ASAP7_75t_L

*CAP
1 *2937:A2 0

*RES
1 *3004:Y *2937:A2 0
*END

*D_NET *803 0.000000

*CONN
*I *2923:B I *L 0.0006 *D A2O1A1Ixp33_ASAP7_75t_L
*I *3003:Y O *L 0.0000 *D NOR3xp33_ASAP7_75t_L

*CAP
1 *2923:B 0

*RES
1 *3003:Y *2923:B 0
*END

*D_NET *804 0.000000

*CONN
*I *2926:B I *L 0.0006 *D A2O1A1Ixp33_ASAP7_75t_L
*I *3002:Y O *L 0.0000 *D NOR3xp33_ASAP7_75t_L

*CAP
1 *2926:B 0

*RES
1 *3002:Y *2926:B 0
*END

*D_NET *805 0.000000

*CONN
*I *3322:A I *L 0.0006 *D INVx1_ASAP7_75t_L
*I *2815:C I *L 0.0006 *D O2A1O1Ixp33_ASAP7_75t_L
*I *2908:A2 I *L 0.0006 *D A2O1A1Ixp33_ASAP7_75t_L
*I *2841:A2 I *L 0.0006 *D A2O1A1Ixp33_ASAP7_75t_L
*I *2822:A2 I *L 0.0006 *D A2O1A1Ixp33_ASAP7_75t_L
*I *2913:A2 I *L 0.0006 *D A2O1A1Ixp33_ASAP7_75t_L
*I *2775:C I *L 0.0006 *D O2A1O1Ixp33_ASAP7_75t_L
*I *2790:C I *L 0.0006 *D O2A1O1Ixp33_ASAP7_75t_L
*I *2928:C I *L 0.0006 *D O2A1O1Ixp33_ASAP7_75t_L
*I *2853:C I *L 0.0006 *D O2A1O1Ixp33_ASAP7_75t_L
*I *2961:C I *L 0.0006 *D O2A1O1Ixp33_ASAP7_75t_L
*I *2959:C I *L 0.0006 *D O2A1O1Ixp33_ASAP7_75t_L
*I *2852:A2 I *L 0.0006 *D A2O1A1Ixp33_ASAP7_75t_L
*I *2764:A2 I *L 0.0006 *D A2O1A1Ixp33_ASAP7_75t_L
*I *2771:C I *L 0.0006 *D O2A1O1Ixp33_ASAP7_75t_L
*I *3017:Y O *L 0.0000 *D AND2x2_ASAP7_75t_L

*CAP
1 *3322:A 0
2 *2815:C 0
3 *2908:A2 0
4 *2841:A2 0
5 *2822:A2 0
6 *2913:A2 0
7 *2775:C 0
8 *2790:C 0
9 *2928:C 0
10 *2853:C 0
11 *2961:C 0
12 *2959:C 0
13 *2852:A2 0
14 *2764:A2 0
15 *2771:C 0

*RES
1 *3017:Y *3322:A 0
2 *3017:Y *2815:C 0
3 *3017:Y *2908:A2 0
4 *3017:Y *2841:A2 0
5 *3017:Y *2822:A2 0
6 *3017:Y *2913:A2 0
7 *3017:Y *2775:C 0
8 *3017:Y *2790:C 0
9 *3017:Y *2928:C 0
10 *3017:Y *2853:C 0
11 *3017:Y *2961:C 0
12 *3017:Y *2959:C 0
13 *3017:Y *2852:A2 0
14 *3017:Y *2764:A2 0
15 *3017:Y *2771:C 0
*END

*D_NET *806 0.000000

*CONN
*I *2968:B I *L 0.0005 *D NAND2xp5_ASAP7_75t_L
*I *3340:B I *L 0.0010 *D XOR2xp5_ASAP7_75t_L
*I *3016:Y O *L 0.0000 *D NOR2xp33_ASAP7_75t_L

*CAP
1 *2968:B 0
2 *3340:B 0

*RES
1 *3016:Y *2968:B 0
2 *3016:Y *3340:B 0
*END

*D_NET *807 0.000000

*CONN
*I *2936:A1 I *L 0.0006 *D OAI21xp5_ASAP7_75t_L
*I *2922:A2 I *L 0.0005 *D AOI21xp5_ASAP7_75t_L
*I *2946:B I *L 0.0004 *D NOR2xp33_ASAP7_75t_L
*I *3015:Y O *L 0.0000 *D NAND2xp5_ASAP7_75t_L

*CAP
1 *2936:A1 0
2 *2922:A2 0
3 *2946:B 0

*RES
1 *3015:Y *2936:A1 0
2 *3015:Y *2922:A2 0
3 *3015:Y *2946:B 0
*END

*D_NET *808 0.000000

*CONN
*I *2967:B I *L 0.0005 *D NAND2xp5_ASAP7_75t_L
*I *3339:B I *L 0.0009 *D XNOR2xp5_ASAP7_75t_L
*I *3014:Y O *L 0.0000 *D NOR2xp33_ASAP7_75t_L

*CAP
1 *2967:B 0
2 *3339:B 0

*RES
1 *3014:Y *2967:B 0
2 *3014:Y *3339:B 0
*END

*D_NET *809 0.000000

*CONN
*I *2933:B I *L 0.0005 *D NOR3xp33_ASAP7_75t_L
*I *2930:B I *L 0.0010 *D XOR2xp5_ASAP7_75t_L
*I *3013:Y O *L 0.0000 *D OAI21xp5_ASAP7_75t_L

*CAP
1 *2933:B 0
2 *2930:B 0

*RES
1 *3013:Y *2933:B 0
2 *3013:Y *2930:B 0
*END

*D_NET *810 0.000000

*CONN
*I *2853:A2 I *L 0.0006 *D O2A1O1Ixp33_ASAP7_75t_L
*I *2999:Y O *L 0.0000 *D XOR2xp5_ASAP7_75t_L

*CAP
1 *2853:A2 0

*RES
1 *2999:Y *2853:A2 0
*END

*D_NET *811 0.000000

*CONN
*I *2855:C I *L 0.0005 *D NOR3xp33_ASAP7_75t_L
*I *2998:Y O *L 0.0000 *D XOR2xp5_ASAP7_75t_L

*CAP
1 *2855:C 0

*RES
1 *2998:Y *2855:C 0
*END

*D_NET *812 0.000000

*CONN
*I *2912:A1 I *L 0.0004 *D AOI22xp33_ASAP7_75t_L
*I *2997:Y O *L 0.0000 *D XNOR2xp5_ASAP7_75t_L

*CAP
1 *2912:A1 0

*RES
1 *2997:Y *2912:A1 0
*END

*D_NET *813 0.000000

*CONN
*I *2916:B I *L 0.0005 *D NOR5xp2_ASAP7_75t_L
*I *2996:Y O *L 0.0000 *D XNOR2xp5_ASAP7_75t_L

*CAP
1 *2916:B 0

*RES
1 *2996:Y *2916:B 0
*END

*D_NET *814 0.000000

*CONN
*I *2904:B I *L 0.0006 *D A2O1A1Ixp33_ASAP7_75t_L
*I *2995:Y O *L 0.0000 *D NOR3xp33_ASAP7_75t_L

*CAP
1 *2904:B 0

*RES
1 *2995:Y *2904:B 0
*END

*D_NET *815 0.000000

*CONN
*I *2902:B I *L 0.0006 *D A2O1A1Ixp33_ASAP7_75t_L
*I *2994:Y O *L 0.0000 *D AND3x1_ASAP7_75t_L

*CAP
1 *2902:B 0

*RES
1 *2994:Y *2902:B 0
*END

*D_NET *816 0.000000

*CONN
*I *2901:B I *L 0.0006 *D A2O1A1Ixp33_ASAP7_75t_L
*I *2993:Y O *L 0.0000 *D AND3x1_ASAP7_75t_L

*CAP
1 *2901:B 0

*RES
1 *2993:Y *2901:B 0
*END

*D_NET *817 0.000000

*CONN
*I *2900:B I *L 0.0006 *D A2O1A1Ixp33_ASAP7_75t_L
*I *2992:Y O *L 0.0000 *D AND3x1_ASAP7_75t_L

*CAP
1 *2900:B 0

*RES
1 *2992:Y *2900:B 0
*END

*D_NET *818 0.000000

*CONN
*I *2899:B I *L 0.0006 *D A2O1A1Ixp33_ASAP7_75t_L
*I *2991:Y O *L 0.0000 *D AND3x1_ASAP7_75t_L

*CAP
1 *2899:B 0

*RES
1 *2991:Y *2899:B 0
*END

*D_NET *819 0.000000

*CONN
*I *2898:B I *L 0.0006 *D A2O1A1Ixp33_ASAP7_75t_L
*I *2990:Y O *L 0.0000 *D AND3x1_ASAP7_75t_L

*CAP
1 *2898:B 0

*RES
1 *2990:Y *2898:B 0
*END

*D_NET *820 0.000000

*CONN
*I *2897:B I *L 0.0006 *D A2O1A1Ixp33_ASAP7_75t_L
*I *2989:Y O *L 0.0000 *D AND3x1_ASAP7_75t_L

*CAP
1 *2897:B 0

*RES
1 *2989:Y *2897:B 0
*END

*D_NET *821 0.000000

*CONN
*I *2896:B I *L 0.0006 *D A2O1A1Ixp33_ASAP7_75t_L
*I *2988:Y O *L 0.0000 *D AND3x1_ASAP7_75t_L

*CAP
1 *2896:B 0

*RES
1 *2988:Y *2896:B 0
*END

*D_NET *822 0.000000

*CONN
*I *2895:B I *L 0.0006 *D A2O1A1Ixp33_ASAP7_75t_L
*I *2987:Y O *L 0.0000 *D AND3x1_ASAP7_75t_L

*CAP
1 *2895:B 0

*RES
1 *2987:Y *2895:B 0
*END

*D_NET *823 0.000000

*CONN
*I *2894:B I *L 0.0006 *D A2O1A1Ixp33_ASAP7_75t_L
*I *2986:Y O *L 0.0000 *D AND3x1_ASAP7_75t_L

*CAP
1 *2894:B 0

*RES
1 *2986:Y *2894:B 0
*END

*D_NET *824 0.000000

*CONN
*I *2884:B I *L 0.0006 *D A2O1A1Ixp33_ASAP7_75t_L
*I *2985:Y O *L 0.0000 *D AND3x1_ASAP7_75t_L

*CAP
1 *2884:B 0

*RES
1 *2985:Y *2884:B 0
*END

*D_NET *825 0.000000

*CONN
*I *2892:B I *L 0.0006 *D A2O1A1Ixp33_ASAP7_75t_L
*I *2984:Y O *L 0.0000 *D AND3x1_ASAP7_75t_L

*CAP
1 *2892:B 0

*RES
1 *2984:Y *2892:B 0
*END

*D_NET *826 0.000000

*CONN
*I *2891:B I *L 0.0006 *D A2O1A1Ixp33_ASAP7_75t_L
*I *2983:Y O *L 0.0000 *D AND3x1_ASAP7_75t_L

*CAP
1 *2891:B 0

*RES
1 *2983:Y *2891:B 0
*END

*D_NET *827 0.000000

*CONN
*I *2903:B I *L 0.0006 *D A2O1A1Ixp33_ASAP7_75t_L
*I *2982:Y O *L 0.0000 *D AND3x1_ASAP7_75t_L

*CAP
1 *2903:B 0

*RES
1 *2982:Y *2903:B 0
*END

*D_NET *828 0.000000

*CONN
*I *2869:B I *L 0.0006 *D A2O1A1Ixp33_ASAP7_75t_L
*I *2981:Y O *L 0.0000 *D AND3x1_ASAP7_75t_L

*CAP
1 *2869:B 0

*RES
1 *2981:Y *2869:B 0
*END

*D_NET *829 0.000000

*CONN
*I *2870:B I *L 0.0006 *D A2O1A1Ixp33_ASAP7_75t_L
*I *2980:Y O *L 0.0000 *D AND3x1_ASAP7_75t_L

*CAP
1 *2870:B 0

*RES
1 *2980:Y *2870:B 0
*END

*D_NET *830 0.000000

*CONN
*I *2871:B I *L 0.0006 *D A2O1A1Ixp33_ASAP7_75t_L
*I *2979:Y O *L 0.0000 *D AND3x1_ASAP7_75t_L

*CAP
1 *2871:B 0

*RES
1 *2979:Y *2871:B 0
*END

*D_NET *831 0.000000

*CONN
*I *2872:B I *L 0.0006 *D A2O1A1Ixp33_ASAP7_75t_L
*I *2978:Y O *L 0.0000 *D AND3x1_ASAP7_75t_L

*CAP
1 *2872:B 0

*RES
1 *2978:Y *2872:B 0
*END

*D_NET *832 0.000000

*CONN
*I *2873:B I *L 0.0006 *D A2O1A1Ixp33_ASAP7_75t_L
*I *2977:Y O *L 0.0000 *D AND3x1_ASAP7_75t_L

*CAP
1 *2873:B 0

*RES
1 *2977:Y *2873:B 0
*END

*D_NET *833 0.000000

*CONN
*I *2874:B I *L 0.0006 *D A2O1A1Ixp33_ASAP7_75t_L
*I *2976:Y O *L 0.0000 *D AND3x1_ASAP7_75t_L

*CAP
1 *2874:B 0

*RES
1 *2976:Y *2874:B 0
*END

*D_NET *834 0.000000

*CONN
*I *2875:B I *L 0.0006 *D A2O1A1Ixp33_ASAP7_75t_L
*I *2975:Y O *L 0.0000 *D AND3x1_ASAP7_75t_L

*CAP
1 *2875:B 0

*RES
1 *2975:Y *2875:B 0
*END

*D_NET *835 0.000000

*CONN
*I *2876:B I *L 0.0006 *D A2O1A1Ixp33_ASAP7_75t_L
*I *2974:Y O *L 0.0000 *D AND3x1_ASAP7_75t_L

*CAP
1 *2876:B 0

*RES
1 *2974:Y *2876:B 0
*END

*D_NET *836 0.000000

*CONN
*I *2877:B I *L 0.0006 *D A2O1A1Ixp33_ASAP7_75t_L
*I *2973:Y O *L 0.0000 *D AND3x1_ASAP7_75t_L

*CAP
1 *2877:B 0

*RES
1 *2973:Y *2877:B 0
*END

*D_NET *837 0.000000

*CONN
*I *2882:B I *L 0.0006 *D A2O1A1Ixp33_ASAP7_75t_L
*I *2972:Y O *L 0.0000 *D AND3x1_ASAP7_75t_L

*CAP
1 *2882:B 0

*RES
1 *2972:Y *2882:B 0
*END

*D_NET *838 0.000000

*CONN
*I *2886:B I *L 0.0006 *D A2O1A1Ixp33_ASAP7_75t_L
*I *2971:Y O *L 0.0000 *D AND3x1_ASAP7_75t_L

*CAP
1 *2886:B 0

*RES
1 *2971:Y *2886:B 0
*END

*D_NET *839 0.000000

*CONN
*I *2885:B I *L 0.0006 *D A2O1A1Ixp33_ASAP7_75t_L
*I *2970:Y O *L 0.0000 *D AND3x1_ASAP7_75t_L

*CAP
1 *2885:B 0

*RES
1 *2970:Y *2885:B 0
*END

*D_NET *840 0.000000

*CONN
*I *2893:B I *L 0.0006 *D A2O1A1Ixp33_ASAP7_75t_L
*I *2969:Y O *L 0.0000 *D AND3x1_ASAP7_75t_L

*CAP
1 *2893:B 0

*RES
1 *2969:Y *2893:B 0
*END

*D_NET *841 0.000000

*CONN
*I *2915:B I *L 0.0005 *D NOR3xp33_ASAP7_75t_L
*I *2890:B I *L 0.0010 *D XOR2xp5_ASAP7_75t_L
*I *3000:Y O *L 0.0000 *D XOR2xp5_ASAP7_75t_L

*CAP
1 *2915:B 0
2 *2890:B 0

*RES
1 *3000:Y *2915:B 0
2 *3000:Y *2890:B 0
*END

*D_NET *842 0.000000

*CONN
*I *2881:B I *L 0.0006 *D A2O1A1Ixp33_ASAP7_75t_L
*I *2966:Y O *L 0.0000 *D AND3x1_ASAP7_75t_L

*CAP
1 *2881:B 0

*RES
1 *2966:Y *2881:B 0
*END

*D_NET *843 0.000000

*CONN
*I *2880:B I *L 0.0006 *D A2O1A1Ixp33_ASAP7_75t_L
*I *2965:Y O *L 0.0000 *D AND3x1_ASAP7_75t_L

*CAP
1 *2880:B 0

*RES
1 *2965:Y *2880:B 0
*END

*D_NET *844 0.000000

*CONN
*I *2879:B I *L 0.0006 *D A2O1A1Ixp33_ASAP7_75t_L
*I *2964:Y O *L 0.0000 *D AND3x1_ASAP7_75t_L

*CAP
1 *2879:B 0

*RES
1 *2964:Y *2879:B 0
*END

*D_NET *845 0.000000

*CONN
*I *2878:B I *L 0.0006 *D A2O1A1Ixp33_ASAP7_75t_L
*I *2963:Y O *L 0.0000 *D AND3x1_ASAP7_75t_L

*CAP
1 *2878:B 0

*RES
1 *2963:Y *2878:B 0
*END

*D_NET *846 0.000000

*CONN
*I *2827:A I *L 0.0003 *D NOR2xp33_ASAP7_75t_L
*I *2962:Y O *L 0.0000 *D AOI22xp33_ASAP7_75t_L

*CAP
1 *2827:A 0

*RES
1 *2962:Y *2827:A 0
*END

*D_NET *847 0.000000

*CONN
*I *2911:B I *L 0.0006 *D A2O1A1Ixp33_ASAP7_75t_L
*I *2961:Y O *L 0.0000 *D O2A1O1Ixp33_ASAP7_75t_L

*CAP
1 *2911:B 0

*RES
1 *2961:Y *2911:B 0
*END

*D_NET *848 0.000000

*CONN
*I *2631:D I *L 0.0006 *D DFFHQNx1_ASAP7_75t_L
*I *2960:Y O *L 0.0000 *D A2O1A1Ixp33_ASAP7_75t_L

*CAP
1 *2631:D 0

*RES
1 *2960:Y *2631:D 0
*END

*D_NET *849 0.000000

*CONN
*I *2913:B I *L 0.0006 *D A2O1A1Ixp33_ASAP7_75t_L
*I *2959:Y O *L 0.0000 *D O2A1O1Ixp33_ASAP7_75t_L

*CAP
1 *2913:B 0

*RES
1 *2959:Y *2913:B 0
*END

*D_NET *850 0.000000

*CONN
*I *2910:B I *L 0.0006 *D A2O1A1Ixp33_ASAP7_75t_L
*I *2958:Y O *L 0.0000 *D O2A1O1Ixp33_ASAP7_75t_L

*CAP
1 *2910:B 0

*RES
1 *2958:Y *2910:B 0
*END

*D_NET *851 0.000000

*CONN
*I *2909:B I *L 0.0006 *D A2O1A1Ixp33_ASAP7_75t_L
*I *2957:Y O *L 0.0000 *D O2A1O1Ixp33_ASAP7_75t_L

*CAP
1 *2909:B 0

*RES
1 *2957:Y *2909:B 0
*END

*D_NET *852 0.000000

*CONN
*I *2908:B I *L 0.0006 *D A2O1A1Ixp33_ASAP7_75t_L
*I *2956:Y O *L 0.0000 *D O2A1O1Ixp33_ASAP7_75t_L

*CAP
1 *2908:B 0

*RES
1 *2956:Y *2908:B 0
*END

*D_NET *853 0.000000

*CONN
*I *2637:D I *L 0.0006 *D DFFHQNx1_ASAP7_75t_L
*I *2955:Y O *L 0.0000 *D A2O1A1Ixp33_ASAP7_75t_L

*CAP
1 *2637:D 0

*RES
1 *2955:Y *2637:D 0
*END

*D_NET *854 0.000000

*CONN
*I *2906:B I *L 0.0006 *D A2O1A1Ixp33_ASAP7_75t_L
*I *2954:Y O *L 0.0000 *D NOR2xp33_ASAP7_75t_L

*CAP
1 *2906:B 0

*RES
1 *2954:Y *2906:B 0
*END

*D_NET *855 0.000000

*CONN
*I *2645:D I *L 0.0006 *D DFFHQNx1_ASAP7_75t_L
*I *2953:Y O *L 0.0000 *D A2O1A1Ixp33_ASAP7_75t_L

*CAP
1 *2645:D 0

*RES
1 *2953:Y *2645:D 0
*END

*D_NET *856 0.000000

*CONN
*I *2644:D I *L 0.0006 *D DFFHQNx1_ASAP7_75t_L
*I *2952:Y O *L 0.0000 *D A2O1A1Ixp33_ASAP7_75t_L

*CAP
1 *2644:D 0

*RES
1 *2952:Y *2644:D 0
*END

*D_NET *857 0.000000

*CONN
*I *2643:D I *L 0.0006 *D DFFHQNx1_ASAP7_75t_L
*I *2951:Y O *L 0.0000 *D A2O1A1Ixp33_ASAP7_75t_L

*CAP
1 *2643:D 0

*RES
1 *2951:Y *2643:D 0
*END

*D_NET *858 0.000000

*CONN
*I *2642:D I *L 0.0006 *D DFFHQNx1_ASAP7_75t_L
*I *2950:Y O *L 0.0000 *D A2O1A1Ixp33_ASAP7_75t_L

*CAP
1 *2642:D 0

*RES
1 *2950:Y *2642:D 0
*END

*D_NET *859 0.000000

*CONN
*I *2641:D I *L 0.0006 *D DFFHQNx1_ASAP7_75t_L
*I *2949:Y O *L 0.0000 *D A2O1A1Ixp33_ASAP7_75t_L

*CAP
1 *2641:D 0

*RES
1 *2949:Y *2641:D 0
*END

*D_NET *860 0.000000

*CONN
*I *2640:D I *L 0.0006 *D DFFHQNx1_ASAP7_75t_L
*I *2948:Y O *L 0.0000 *D A2O1A1Ixp33_ASAP7_75t_L

*CAP
1 *2640:D 0

*RES
1 *2948:Y *2640:D 0
*END

*D_NET *861 0.000000

*CONN
*I *2639:D I *L 0.0006 *D DFFHQNx1_ASAP7_75t_L
*I *2947:Y O *L 0.0000 *D A2O1A1Ixp33_ASAP7_75t_L

*CAP
1 *2639:D 0

*RES
1 *2947:Y *2639:D 0
*END

*D_NET *862 0.000000

*CONN
*I *2935:C I *L 0.0006 *D O2A1O1Ixp33_ASAP7_75t_L
*I *2946:Y O *L 0.0000 *D NOR2xp33_ASAP7_75t_L

*CAP
1 *2935:C 0

*RES
1 *2946:Y *2935:C 0
*END

*D_NET *863 0.000000

*CONN
*I *2868:B I *L 0.0006 *D A2O1A1Ixp33_ASAP7_75t_L
*I *2945:Y O *L 0.0000 *D AND3x1_ASAP7_75t_L

*CAP
1 *2868:B 0

*RES
1 *2945:Y *2868:B 0
*END

*D_NET *864 0.000000

*CONN
*I *2883:B I *L 0.0006 *D A2O1A1Ixp33_ASAP7_75t_L
*I *2944:Y O *L 0.0000 *D AND3x1_ASAP7_75t_L

*CAP
1 *2883:B 0

*RES
1 *2944:Y *2883:B 0
*END

*D_NET *865 0.000000

*CONN
*I *2638:D I *L 0.0006 *D DFFHQNx1_ASAP7_75t_L
*I *2943:Y O *L 0.0000 *D A2O1A1Ixp33_ASAP7_75t_L

*CAP
1 *2638:D 0

*RES
1 *2943:Y *2638:D 0
*END

*D_NET *866 0.000000

*CONN
*I *2636:D I *L 0.0006 *D DFFHQNx1_ASAP7_75t_L
*I *2942:Y O *L 0.0000 *D A2O1A1Ixp33_ASAP7_75t_L

*CAP
1 *2636:D 0

*RES
1 *2942:Y *2636:D 0
*END

*D_NET *867 0.000000

*CONN
*I *2635:D I *L 0.0006 *D DFFHQNx1_ASAP7_75t_L
*I *2941:Y O *L 0.0000 *D A2O1A1Ixp33_ASAP7_75t_L

*CAP
1 *2635:D 0

*RES
1 *2941:Y *2635:D 0
*END

*D_NET *868 0.000000

*CONN
*I *2634:D I *L 0.0006 *D DFFHQNx1_ASAP7_75t_L
*I *2940:Y O *L 0.0000 *D A2O1A1Ixp33_ASAP7_75t_L

*CAP
1 *2634:D 0

*RES
1 *2940:Y *2634:D 0
*END

*D_NET *869 0.000000

*CONN
*I *2633:D I *L 0.0006 *D DFFHQNx1_ASAP7_75t_L
*I *2939:Y O *L 0.0000 *D A2O1A1Ixp33_ASAP7_75t_L

*CAP
1 *2633:D 0

*RES
1 *2939:Y *2633:D 0
*END

*D_NET *870 0.000000

*CONN
*I *2632:D I *L 0.0006 *D DFFHQNx1_ASAP7_75t_L
*I *2938:Y O *L 0.0000 *D A2O1A1Ixp33_ASAP7_75t_L

*CAP
1 *2632:D 0

*RES
1 *2938:Y *2632:D 0
*END

*D_NET *871 0.000000

*CONN
*I *2921:B I *L 0.0004 *D NOR2xp33_ASAP7_75t_L
*I *2917:B I *L 0.0009 *D XNOR2xp5_ASAP7_75t_L
*I *2968:Y O *L 0.0000 *D NAND2xp5_ASAP7_75t_L

*CAP
1 *2921:B 0
2 *2917:B 0

*RES
1 *2968:Y *2921:B 0
2 *2968:Y *2917:B 0
*END

*D_NET *872 0.000000

*CONN
*I *2920:B I *L 0.0004 *D NOR2xp33_ASAP7_75t_L
*I *2907:B I *L 0.0010 *D XOR2xp5_ASAP7_75t_L
*I *2967:Y O *L 0.0000 *D NAND2xp5_ASAP7_75t_L

*CAP
1 *2920:B 0
2 *2907:B 0

*RES
1 *2967:Y *2920:B 0
2 *2967:Y *2907:B 0
*END

*D_NET *873 0.000000

*CONN
*I *2859:A1 I *L 0.0004 *D AOI21xp33_ASAP7_75t_L
*I *2935:Y O *L 0.0000 *D O2A1O1Ixp33_ASAP7_75t_L

*CAP
1 *2859:A1 0

*RES
1 *2935:Y *2859:A1 0
*END

*D_NET *874 0.000000

*CONN
*I *2688:D I *L 0.0006 *D DFFHQNx1_ASAP7_75t_L
*I *2934:Y O *L 0.0000 *D A2O1A1Ixp33_ASAP7_75t_L

*CAP
1 *2688:D 0

*RES
1 *2934:Y *2688:D 0
*END

*D_NET *875 0.000000

*CONN
*I *2860:B I *L 0.0006 *D A2O1A1Ixp33_ASAP7_75t_L
*I *2933:Y O *L 0.0000 *D NOR3xp33_ASAP7_75t_L

*CAP
1 *2860:B 0

*RES
1 *2933:Y *2860:B 0
*END

*D_NET *876 0.000000

*CONN
*I *2718:D I *L 0.0006 *D DFFHQNx1_ASAP7_75t_L
*I *2932:Y O *L 0.0000 *D A2O1A1Ixp33_ASAP7_75t_L

*CAP
1 *2718:D 0

*RES
1 *2932:Y *2718:D 0
*END

*D_NET *877 0.000000

*CONN
*I *2624:D I *L 0.0006 *D DFFHQNx1_ASAP7_75t_L
*I *2931:Y O *L 0.0000 *D A2O1A1Ixp33_ASAP7_75t_L

*CAP
1 *2624:D 0

*RES
1 *2931:Y *2624:D 0
*END

*D_NET *878 0.000000

*CONN
*I *2805:A3 I *L 0.0006 *D AOI333xp33_ASAP7_75t_L
*I *2930:Y O *L 0.0000 *D XOR2xp5_ASAP7_75t_L

*CAP
1 *2805:A3 0

*RES
1 *2930:Y *2805:A3 0
*END

*D_NET *879 0.000000

*CONN
*I *2826:A I *L 0.0003 *D NOR2xp33_ASAP7_75t_L
*I *2929:Y O *L 0.0000 *D AOI22xp33_ASAP7_75t_L

*CAP
1 *2826:A 0

*RES
1 *2929:Y *2826:A 0
*END

*D_NET *880 0.000000

*CONN
*I *2852:B I *L 0.0006 *D A2O1A1Ixp33_ASAP7_75t_L
*I *2928:Y O *L 0.0000 *D O2A1O1Ixp33_ASAP7_75t_L

*CAP
1 *2852:B 0

*RES
1 *2928:Y *2852:B 0
*END

*D_NET *881 0.000000

*CONN
*I *2646:D I *L 0.0006 *D DFFHQNx1_ASAP7_75t_L
*I *2927:Y O *L 0.0000 *D A2O1A1Ixp33_ASAP7_75t_L

*CAP
1 *2646:D 0

*RES
1 *2927:Y *2646:D 0
*END

*D_NET *882 0.000000

*CONN
*I *2627:D I *L 0.0006 *D DFFHQNx1_ASAP7_75t_L
*I *2926:Y O *L 0.0000 *D A2O1A1Ixp33_ASAP7_75t_L

*CAP
1 *2627:D 0

*RES
1 *2926:Y *2627:D 0
*END

*D_NET *883 0.000000

*CONN
*I *2625:D I *L 0.0006 *D DFFHQNx1_ASAP7_75t_L
*I *2925:Y O *L 0.0000 *D A2O1A1Ixp33_ASAP7_75t_L

*CAP
1 *2625:D 0

*RES
1 *2925:Y *2625:D 0
*END

*D_NET *884 0.000000

*CONN
*I *2623:D I *L 0.0006 *D DFFHQNx1_ASAP7_75t_L
*I *2924:Y O *L 0.0000 *D A2O1A1Ixp33_ASAP7_75t_L

*CAP
1 *2623:D 0

*RES
1 *2924:Y *2623:D 0
*END

*D_NET *885 0.000000

*CONN
*I *2626:D I *L 0.0006 *D DFFHQNx1_ASAP7_75t_L
*I *2923:Y O *L 0.0000 *D A2O1A1Ixp33_ASAP7_75t_L

*CAP
1 *2626:D 0

*RES
1 *2923:Y *2626:D 0
*END

*D_NET *886 0.000000

*CONN
*I *2866:A I *L 0.0005 *D NAND5xp2_ASAP7_75t_L
*I *2922:Y O *L 0.0000 *D AOI21xp5_ASAP7_75t_L

*CAP
1 *2866:A 0

*RES
1 *2922:Y *2866:A 0
*END

*D_NET *887 0.000000

*CONN
*I *2914:B I *L 0.0005 *D AOI21xp33_ASAP7_75t_L
*I *2839:A2 I *L 0.0006 *D A2O1A1Ixp33_ASAP7_75t_L
*I *2937:Y O *L 0.0000 *D AOI21xp5_ASAP7_75t_L

*CAP
1 *2914:B 0
2 *2839:A2 0

*RES
1 *2937:Y *2914:B 0
2 *2937:Y *2839:A2 0
*END

*D_NET *888 0.000000

*CONN
*I *2867:A1 I *L 0.0006 *D AOI21xp5_ASAP7_75t_L
*I *2919:B I *L 0.0004 *D NOR2xp33_ASAP7_75t_L
*I *2936:Y O *L 0.0000 *D OAI21xp5_ASAP7_75t_L

*CAP
1 *2867:A1 0
2 *2919:B 0

*RES
1 *2936:Y *2867:A1 0
2 *2936:Y *2919:B 0
*END

*D_NET *889 0.000000

*CONN
*I *2888:B I *L 0.0005 *D NAND2xp5_ASAP7_75t_L
*I *3338:B I *L 0.0010 *D XOR2xp5_ASAP7_75t_L
*I *2921:Y O *L 0.0000 *D NOR2xp33_ASAP7_75t_L

*CAP
1 *2888:B 0
2 *3338:B 0

*RES
1 *2921:Y *2888:B 0
2 *2921:Y *3338:B 0
*END

*D_NET *890 0.000000

*CONN
*I *2887:B I *L 0.0005 *D NAND2xp5_ASAP7_75t_L
*I *3337:B I *L 0.0009 *D XNOR2xp5_ASAP7_75t_L
*I *2920:Y O *L 0.0000 *D NOR2xp33_ASAP7_75t_L

*CAP
1 *2887:B 0
2 *3337:B 0

*RES
1 *2920:Y *2887:B 0
2 *2920:Y *3337:B 0
*END

*D_NET *891 0.000000

*CONN
*I *2843:A1 I *L 0.0004 *D AOI22xp33_ASAP7_75t_L
*I *2917:Y O *L 0.0000 *D XNOR2xp5_ASAP7_75t_L

*CAP
1 *2843:A1 0

*RES
1 *2917:Y *2843:A1 0
*END

*D_NET *892 0.000000

*CONN
*I *2805:A1 I *L 0.0006 *D AOI333xp33_ASAP7_75t_L
*I *2916:Y O *L 0.0000 *D NOR5xp2_ASAP7_75t_L

*CAP
1 *2805:A1 0

*RES
1 *2916:Y *2805:A1 0
*END

*D_NET *893 0.000000

*CONN
*I *2830:B I *L 0.0006 *D A2O1A1Ixp33_ASAP7_75t_L
*I *2915:Y O *L 0.0000 *D NOR3xp33_ASAP7_75t_L

*CAP
1 *2830:B 0

*RES
1 *2915:Y *2830:B 0
*END

*D_NET *894 0.000000

*CONN
*I *2839:B I *L 0.0006 *D A2O1A1Ixp33_ASAP7_75t_L
*I *2914:Y O *L 0.0000 *D AOI21xp33_ASAP7_75t_L

*CAP
1 *2839:B 0

*RES
1 *2914:Y *2839:B 0
*END

*D_NET *895 0.000000

*CONN
*I *2610:D I *L 0.0006 *D DFFHQNx1_ASAP7_75t_L
*I *2913:Y O *L 0.0000 *D A2O1A1Ixp33_ASAP7_75t_L

*CAP
1 *2610:D 0

*RES
1 *2913:Y *2610:D 0
*END

*D_NET *896 0.000000

*CONN
*I *2836:A I *L 0.0003 *D NOR2xp33_ASAP7_75t_L
*I *2912:Y O *L 0.0000 *D AOI22xp33_ASAP7_75t_L

*CAP
1 *2836:A 0

*RES
1 *2912:Y *2836:A 0
*END

*D_NET *897 0.000000

*CONN
*I *2609:D I *L 0.0006 *D DFFHQNx1_ASAP7_75t_L
*I *2911:Y O *L 0.0000 *D A2O1A1Ixp33_ASAP7_75t_L

*CAP
1 *2609:D 0

*RES
1 *2911:Y *2609:D 0
*END

*D_NET *898 0.000000

*CONN
*I *2613:D I *L 0.0006 *D DFFHQNx1_ASAP7_75t_L
*I *2910:Y O *L 0.0000 *D A2O1A1Ixp33_ASAP7_75t_L

*CAP
1 *2613:D 0

*RES
1 *2910:Y *2613:D 0
*END

*D_NET *899 0.000000

*CONN
*I *2612:D I *L 0.0006 *D DFFHQNx1_ASAP7_75t_L
*I *2909:Y O *L 0.0000 *D A2O1A1Ixp33_ASAP7_75t_L

*CAP
1 *2612:D 0

*RES
1 *2909:Y *2612:D 0
*END

*D_NET *900 0.000000

*CONN
*I *2611:D I *L 0.0006 *D DFFHQNx1_ASAP7_75t_L
*I *2908:Y O *L 0.0000 *D A2O1A1Ixp33_ASAP7_75t_L

*CAP
1 *2611:D 0

*RES
1 *2908:Y *2611:D 0
*END

*D_NET *901 0.000000

*CONN
*I *2815:A1 I *L 0.0006 *D O2A1O1Ixp33_ASAP7_75t_L
*I *2907:Y O *L 0.0000 *D XOR2xp5_ASAP7_75t_L

*CAP
1 *2815:A1 0

*RES
1 *2907:Y *2815:A1 0
*END

*D_NET *902 0.000000

*CONN
*I *2687:D I *L 0.0006 *D DFFHQNx1_ASAP7_75t_L
*I *2906:Y O *L 0.0000 *D A2O1A1Ixp33_ASAP7_75t_L

*CAP
1 *2687:D 0

*RES
1 *2906:Y *2687:D 0
*END

*D_NET *903 0.000000

*CONN
*I *2841:B I *L 0.0006 *D A2O1A1Ixp33_ASAP7_75t_L
*I *2905:Y O *L 0.0000 *D O2A1O1Ixp33_ASAP7_75t_L

*CAP
1 *2841:B 0

*RES
1 *2905:Y *2841:B 0
*END

*D_NET *904 0.000000

*CONN
*I *2628:D I *L 0.0006 *D DFFHQNx1_ASAP7_75t_L
*I *2904:Y O *L 0.0000 *D A2O1A1Ixp33_ASAP7_75t_L

*CAP
1 *2628:D 0

*RES
1 *2904:Y *2628:D 0
*END

*D_NET *905 0.000000

*CONN
*I *2673:D I *L 0.0006 *D DFFHQNx1_ASAP7_75t_L
*I *2903:Y O *L 0.0000 *D A2O1A1Ixp33_ASAP7_75t_L

*CAP
1 *2673:D 0

*RES
1 *2903:Y *2673:D 0
*END

*D_NET *906 0.000000

*CONN
*I *2685:D I *L 0.0006 *D DFFHQNx1_ASAP7_75t_L
*I *2902:Y O *L 0.0000 *D A2O1A1Ixp33_ASAP7_75t_L

*CAP
1 *2685:D 0

*RES
1 *2902:Y *2685:D 0
*END

*D_NET *907 0.000000

*CONN
*I *2684:D I *L 0.0006 *D DFFHQNx1_ASAP7_75t_L
*I *2901:Y O *L 0.0000 *D A2O1A1Ixp33_ASAP7_75t_L

*CAP
1 *2684:D 0

*RES
1 *2901:Y *2684:D 0
*END

*D_NET *908 0.000000

*CONN
*I *2683:D I *L 0.0006 *D DFFHQNx1_ASAP7_75t_L
*I *2900:Y O *L 0.0000 *D A2O1A1Ixp33_ASAP7_75t_L

*CAP
1 *2683:D 0

*RES
1 *2900:Y *2683:D 0
*END

*D_NET *909 0.000000

*CONN
*I *2682:D I *L 0.0006 *D DFFHQNx1_ASAP7_75t_L
*I *2899:Y O *L 0.0000 *D A2O1A1Ixp33_ASAP7_75t_L

*CAP
1 *2682:D 0

*RES
1 *2899:Y *2682:D 0
*END

*D_NET *910 0.000000

*CONN
*I *2681:D I *L 0.0006 *D DFFHQNx1_ASAP7_75t_L
*I *2898:Y O *L 0.0000 *D A2O1A1Ixp33_ASAP7_75t_L

*CAP
1 *2681:D 0

*RES
1 *2898:Y *2681:D 0
*END

*D_NET *911 0.000000

*CONN
*I *2680:D I *L 0.0006 *D DFFHQNx1_ASAP7_75t_L
*I *2897:Y O *L 0.0000 *D A2O1A1Ixp33_ASAP7_75t_L

*CAP
1 *2680:D 0

*RES
1 *2897:Y *2680:D 0
*END

*D_NET *912 0.000000

*CONN
*I *2679:D I *L 0.0006 *D DFFHQNx1_ASAP7_75t_L
*I *2896:Y O *L 0.0000 *D A2O1A1Ixp33_ASAP7_75t_L

*CAP
1 *2679:D 0

*RES
1 *2896:Y *2679:D 0
*END

*D_NET *913 0.000000

*CONN
*I *2678:D I *L 0.0006 *D DFFHQNx1_ASAP7_75t_L
*I *2895:Y O *L 0.0000 *D A2O1A1Ixp33_ASAP7_75t_L

*CAP
1 *2678:D 0

*RES
1 *2895:Y *2678:D 0
*END

*D_NET *914 0.000000

*CONN
*I *2677:D I *L 0.0006 *D DFFHQNx1_ASAP7_75t_L
*I *2894:Y O *L 0.0000 *D A2O1A1Ixp33_ASAP7_75t_L

*CAP
1 *2677:D 0

*RES
1 *2894:Y *2677:D 0
*END

*D_NET *915 0.000000

*CONN
*I *2676:D I *L 0.0006 *D DFFHQNx1_ASAP7_75t_L
*I *2893:Y O *L 0.0000 *D A2O1A1Ixp33_ASAP7_75t_L

*CAP
1 *2676:D 0

*RES
1 *2893:Y *2676:D 0
*END

*D_NET *916 0.000000

*CONN
*I *2675:D I *L 0.0006 *D DFFHQNx1_ASAP7_75t_L
*I *2892:Y O *L 0.0000 *D A2O1A1Ixp33_ASAP7_75t_L

*CAP
1 *2675:D 0

*RES
1 *2892:Y *2675:D 0
*END

*D_NET *917 0.000000

*CONN
*I *2674:D I *L 0.0006 *D DFFHQNx1_ASAP7_75t_L
*I *2891:Y O *L 0.0000 *D A2O1A1Ixp33_ASAP7_75t_L

*CAP
1 *2674:D 0

*RES
1 *2891:Y *2674:D 0
*END

*D_NET *918 0.000000

*CONN
*I *2805:A2 I *L 0.0006 *D AOI333xp33_ASAP7_75t_L
*I *2890:Y O *L 0.0000 *D XOR2xp5_ASAP7_75t_L

*CAP
1 *2805:A2 0

*RES
1 *2890:Y *2805:A2 0
*END

*D_NET *919 0.000000

*CONN
*I *2820:A2 I *L 0.0006 *D A2O1A1Ixp33_ASAP7_75t_L
*I *2819:A2 I *L 0.0006 *D A2O1A1Ixp33_ASAP7_75t_L
*I *2814:A2 I *L 0.0006 *D A2O1A1Ixp33_ASAP7_75t_L
*I *2816:A2 I *L 0.0006 *D A2O1A1Ixp33_ASAP7_75t_L
*I *2812:A2 I *L 0.0006 *D A2O1A1Ixp33_ASAP7_75t_L
*I *2813:A2 I *L 0.0006 *D A2O1A1Ixp33_ASAP7_75t_L
*I *2817:A2 I *L 0.0006 *D A2O1A1Ixp33_ASAP7_75t_L
*I *2818:A2 I *L 0.0006 *D A2O1A1Ixp33_ASAP7_75t_L
*I *2857:A I *L 0.0005 *D NOR3xp33_ASAP7_75t_L
*I *2861:A I *L 0.0005 *D NOR3xp33_ASAP7_75t_L
*I *2849:A I *L 0.0005 *D NOR3xp33_ASAP7_75t_L
*I *2862:A I *L 0.0005 *D NOR3xp33_ASAP7_75t_L
*I *2858:A I *L 0.0005 *D NOR3xp33_ASAP7_75t_L
*I *2850:A I *L 0.0005 *D NOR3xp33_ASAP7_75t_L
*I *2855:A I *L 0.0005 *D NOR3xp33_ASAP7_75t_L
*I *2856:A I *L 0.0005 *D NOR3xp33_ASAP7_75t_L
*I *2919:Y O *L 0.0000 *D NOR2xp33_ASAP7_75t_L

*CAP
1 *2820:A2 0
2 *2819:A2 0
3 *2814:A2 0
4 *2816:A2 0
5 *2812:A2 0
6 *2813:A2 0
7 *2817:A2 0
8 *2818:A2 0
9 *2857:A 0
10 *2861:A 0
11 *2849:A 0
12 *2862:A 0
13 *2858:A 0
14 *2850:A 0
15 *2855:A 0
16 *2856:A 0

*RES
1 *2919:Y *2820:A2 0
2 *2919:Y *2819:A2 0
3 *2919:Y *2814:A2 0
4 *2919:Y *2816:A2 0
5 *2919:Y *2812:A2 0
6 *2919:Y *2813:A2 0
7 *2919:Y *2817:A2 0
8 *2919:Y *2818:A2 0
9 *2919:Y *2857:A 0
10 *2919:Y *2861:A 0
11 *2919:Y *2849:A 0
12 *2919:Y *2862:A 0
13 *2919:Y *2858:A 0
14 *2919:Y *2850:A 0
15 *2919:Y *2855:A 0
16 *2919:Y *2856:A 0
*END

*D_NET *920 0.000000

*CONN
*I *2889:A I *L 0.0006 *D INVx1_ASAP7_75t_L
*I *2863:B I *L 0.0004 *D NOR2xp33_ASAP7_75t_L
*I *2918:Y O *L 0.0000 *D OAI311xp33_ASAP7_75t_L

*CAP
1 *2889:A 0
2 *2863:B 0

*RES
1 *2918:Y *2889:A 0
2 *2918:Y *2863:B 0
*END

*D_NET *921 0.000000

*CONN
*I *2854:C I *L 0.0005 *D O2A1O1Ixp33_ASAP7_75t_R
*I *2821:A2 I *L 0.0006 *D A2O1A1Ixp33_ASAP7_75t_L
*I *2889:Y O *L 0.0000 *D INVx1_ASAP7_75t_L

*CAP
1 *2854:C 0
2 *2821:A2 0

*RES
1 *2889:Y *2854:C 0
2 *2889:Y *2821:A2 0
*END

*D_NET *922 0.000000

*CONN
*I *2662:D I *L 0.0006 *D DFFHQNx1_ASAP7_75t_L
*I *2886:Y O *L 0.0000 *D A2O1A1Ixp33_ASAP7_75t_L

*CAP
1 *2662:D 0

*RES
1 *2886:Y *2662:D 0
*END

*D_NET *923 0.000000

*CONN
*I *2661:D I *L 0.0006 *D DFFHQNx1_ASAP7_75t_L
*I *2885:Y O *L 0.0000 *D A2O1A1Ixp33_ASAP7_75t_L

*CAP
1 *2661:D 0

*RES
1 *2885:Y *2661:D 0
*END

*D_NET *924 0.000000

*CONN
*I *2660:D I *L 0.0006 *D DFFHQNx1_ASAP7_75t_L
*I *2884:Y O *L 0.0000 *D A2O1A1Ixp33_ASAP7_75t_L

*CAP
1 *2660:D 0

*RES
1 *2884:Y *2660:D 0
*END

*D_NET *925 0.000000

*CONN
*I *2659:D I *L 0.0006 *D DFFHQNx1_ASAP7_75t_L
*I *2883:Y O *L 0.0000 *D A2O1A1Ixp33_ASAP7_75t_L

*CAP
1 *2659:D 0

*RES
1 *2883:Y *2659:D 0
*END

*D_NET *926 0.000000

*CONN
*I *2663:D I *L 0.0006 *D DFFHQNx1_ASAP7_75t_L
*I *2882:Y O *L 0.0000 *D A2O1A1Ixp33_ASAP7_75t_L

*CAP
1 *2663:D 0

*RES
1 *2882:Y *2663:D 0
*END

*D_NET *927 0.000000

*CONN
*I *2657:D I *L 0.0006 *D DFFHQNx1_ASAP7_75t_L
*I *2881:Y O *L 0.0000 *D A2O1A1Ixp33_ASAP7_75t_L

*CAP
1 *2657:D 0

*RES
1 *2881:Y *2657:D 0
*END

*D_NET *928 0.000000

*CONN
*I *2656:D I *L 0.0006 *D DFFHQNx1_ASAP7_75t_L
*I *2880:Y O *L 0.0000 *D A2O1A1Ixp33_ASAP7_75t_L

*CAP
1 *2656:D 0

*RES
1 *2880:Y *2656:D 0
*END

*D_NET *929 0.000000

*CONN
*I *2655:D I *L 0.0006 *D DFFHQNx1_ASAP7_75t_L
*I *2879:Y O *L 0.0000 *D A2O1A1Ixp33_ASAP7_75t_L

*CAP
1 *2655:D 0

*RES
1 *2879:Y *2655:D 0
*END

*D_NET *930 0.000000

*CONN
*I *2654:D I *L 0.0006 *D DFFHQNx1_ASAP7_75t_L
*I *2878:Y O *L 0.0000 *D A2O1A1Ixp33_ASAP7_75t_L

*CAP
1 *2654:D 0

*RES
1 *2878:Y *2654:D 0
*END

*D_NET *931 0.000000

*CONN
*I *2664:D I *L 0.0006 *D DFFHQNx1_ASAP7_75t_L
*I *2877:Y O *L 0.0000 *D A2O1A1Ixp33_ASAP7_75t_L

*CAP
1 *2664:D 0

*RES
1 *2877:Y *2664:D 0
*END

*D_NET *932 0.000000

*CONN
*I *2665:D I *L 0.0006 *D DFFHQNx1_ASAP7_75t_L
*I *2876:Y O *L 0.0000 *D A2O1A1Ixp33_ASAP7_75t_L

*CAP
1 *2665:D 0

*RES
1 *2876:Y *2665:D 0
*END

*D_NET *933 0.000000

*CONN
*I *2666:D I *L 0.0006 *D DFFHQNx1_ASAP7_75t_L
*I *2875:Y O *L 0.0000 *D A2O1A1Ixp33_ASAP7_75t_L

*CAP
1 *2666:D 0

*RES
1 *2875:Y *2666:D 0
*END

*D_NET *934 0.000000

*CONN
*I *2667:D I *L 0.0006 *D DFFHQNx1_ASAP7_75t_L
*I *2874:Y O *L 0.0000 *D A2O1A1Ixp33_ASAP7_75t_L

*CAP
1 *2667:D 0

*RES
1 *2874:Y *2667:D 0
*END

*D_NET *935 0.000000

*CONN
*I *2668:D I *L 0.0006 *D DFFHQNx1_ASAP7_75t_L
*I *2873:Y O *L 0.0000 *D A2O1A1Ixp33_ASAP7_75t_L

*CAP
1 *2668:D 0

*RES
1 *2873:Y *2668:D 0
*END

*D_NET *936 0.000000

*CONN
*I *2669:D I *L 0.0006 *D DFFHQNx1_ASAP7_75t_L
*I *2872:Y O *L 0.0000 *D A2O1A1Ixp33_ASAP7_75t_L

*CAP
1 *2669:D 0

*RES
1 *2872:Y *2669:D 0
*END

*D_NET *937 0.000000

*CONN
*I *2670:D I *L 0.0006 *D DFFHQNx1_ASAP7_75t_L
*I *2871:Y O *L 0.0000 *D A2O1A1Ixp33_ASAP7_75t_L

*CAP
1 *2670:D 0

*RES
1 *2871:Y *2670:D 0
*END

*D_NET *938 0.000000

*CONN
*I *2671:D I *L 0.0006 *D DFFHQNx1_ASAP7_75t_L
*I *2870:Y O *L 0.0000 *D A2O1A1Ixp33_ASAP7_75t_L

*CAP
1 *2671:D 0

*RES
1 *2870:Y *2671:D 0
*END

*D_NET *939 0.000000

*CONN
*I *2672:D I *L 0.0006 *D DFFHQNx1_ASAP7_75t_L
*I *2869:Y O *L 0.0000 *D A2O1A1Ixp33_ASAP7_75t_L

*CAP
1 *2672:D 0

*RES
1 *2869:Y *2672:D 0
*END

*D_NET *940 0.000000

*CONN
*I *2658:D I *L 0.0006 *D DFFHQNx1_ASAP7_75t_L
*I *2868:Y O *L 0.0000 *D A2O1A1Ixp33_ASAP7_75t_L

*CAP
1 *2658:D 0

*RES
1 *2868:Y *2658:D 0
*END

*D_NET *941 0.000000

*CONN
*I *2864:B I *L 0.0004 *D NOR2xp33_ASAP7_75t_L
*I *2845:B I *L 0.0009 *D XNOR2xp5_ASAP7_75t_L
*I *2888:Y O *L 0.0000 *D NAND2xp5_ASAP7_75t_L

*CAP
1 *2864:B 0
2 *2845:B 0

*RES
1 *2888:Y *2864:B 0
2 *2888:Y *2845:B 0
*END

*D_NET *942 0.000000

*CONN
*I *2865:B I *L 0.0004 *D NOR2xp33_ASAP7_75t_L
*I *2844:B I *L 0.0010 *D XOR2xp5_ASAP7_75t_L
*I *2887:Y O *L 0.0000 *D NAND2xp5_ASAP7_75t_L

*CAP
1 *2865:B 0
2 *2844:B 0

*RES
1 *2887:Y *2865:B 0
2 *2887:Y *2844:B 0
*END

*D_NET *943 0.000000

*CONN
*I *2816:B I *L 0.0006 *D A2O1A1Ixp33_ASAP7_75t_L
*I *2862:Y O *L 0.0000 *D NOR3xp33_ASAP7_75t_L

*CAP
1 *2816:B 0

*RES
1 *2862:Y *2816:B 0
*END

*D_NET *944 0.000000

*CONN
*I *2817:B I *L 0.0006 *D A2O1A1Ixp33_ASAP7_75t_L
*I *2861:Y O *L 0.0000 *D NOR3xp33_ASAP7_75t_L

*CAP
1 *2817:B 0

*RES
1 *2861:Y *2817:B 0
*END

*D_NET *945 0.000000

*CONN
*I *2629:D I *L 0.0006 *D DFFHQNx1_ASAP7_75t_L
*I *2860:Y O *L 0.0000 *D A2O1A1Ixp33_ASAP7_75t_L

*CAP
1 *2629:D 0

*RES
1 *2860:Y *2629:D 0
*END

*D_NET *946 0.000000

*CONN
*I *2824:B I *L 0.0006 *D A2O1A1Ixp33_ASAP7_75t_L
*I *2859:Y O *L 0.0000 *D AOI21xp33_ASAP7_75t_L

*CAP
1 *2824:B 0

*RES
1 *2859:Y *2824:B 0
*END

*D_NET *947 0.000000

*CONN
*I *2814:B I *L 0.0006 *D A2O1A1Ixp33_ASAP7_75t_L
*I *2858:Y O *L 0.0000 *D NOR3xp33_ASAP7_75t_L

*CAP
1 *2814:B 0

*RES
1 *2858:Y *2814:B 0
*END

*D_NET *948 0.000000

*CONN
*I *2818:B I *L 0.0006 *D A2O1A1Ixp33_ASAP7_75t_L
*I *2857:Y O *L 0.0000 *D NOR3xp33_ASAP7_75t_L

*CAP
1 *2818:B 0

*RES
1 *2857:Y *2818:B 0
*END

*D_NET *949 0.000000

*CONN
*I *2819:B I *L 0.0006 *D A2O1A1Ixp33_ASAP7_75t_L
*I *2856:Y O *L 0.0000 *D NOR3xp33_ASAP7_75t_L

*CAP
1 *2819:B 0

*RES
1 *2856:Y *2819:B 0
*END

*D_NET *950 0.000000

*CONN
*I *2820:B I *L 0.0006 *D A2O1A1Ixp33_ASAP7_75t_L
*I *2855:Y O *L 0.0000 *D NOR3xp33_ASAP7_75t_L

*CAP
1 *2820:B 0

*RES
1 *2855:Y *2820:B 0
*END

*D_NET *951 0.000000

*CONN
*I *2821:B I *L 0.0006 *D A2O1A1Ixp33_ASAP7_75t_L
*I *2854:Y O *L 0.0000 *D O2A1O1Ixp33_ASAP7_75t_R

*CAP
1 *2821:B 0

*RES
1 *2854:Y *2821:B 0
*END

*D_NET *952 0.000000

*CONN
*I *2822:B I *L 0.0006 *D A2O1A1Ixp33_ASAP7_75t_L
*I *2853:Y O *L 0.0000 *D O2A1O1Ixp33_ASAP7_75t_L

*CAP
1 *2822:B 0

*RES
1 *2853:Y *2822:B 0
*END

*D_NET *953 0.000000

*CONN
*I *2614:D I *L 0.0006 *D DFFHQNx1_ASAP7_75t_L
*I *2852:Y O *L 0.0000 *D A2O1A1Ixp33_ASAP7_75t_L

*CAP
1 *2614:D 0

*RES
1 *2852:Y *2614:D 0
*END

*D_NET *954 0.000000

*CONN
*I *2837:A I *L 0.0003 *D NOR2xp33_ASAP7_75t_L
*I *2851:Y O *L 0.0000 *D AOI22xp33_ASAP7_75t_L

*CAP
1 *2837:A 0

*RES
1 *2851:Y *2837:A 0
*END

*D_NET *955 0.000000

*CONN
*I *2812:B I *L 0.0006 *D A2O1A1Ixp33_ASAP7_75t_L
*I *2850:Y O *L 0.0000 *D NOR3xp33_ASAP7_75t_L

*CAP
1 *2812:B 0

*RES
1 *2850:Y *2812:B 0
*END

*D_NET *956 0.000000

*CONN
*I *2813:B I *L 0.0006 *D A2O1A1Ixp33_ASAP7_75t_L
*I *2849:Y O *L 0.0000 *D NOR3xp33_ASAP7_75t_L

*CAP
1 *2813:B 0

*RES
1 *2849:Y *2813:B 0
*END

*D_NET *957 0.000000

*CONN
*I *3327:A I *L 0.0006 *D INVx1_ASAP7_75t_L
*I *2831:B I *L 0.0004 *D NOR2xp33_ASAP7_75t_L
*I *2768:A I *L 0.0003 *D NOR2xp33_ASAP7_75t_L
*I *2829:B I *L 0.0004 *D NOR2xp33_ASAP7_75t_L
*I *2826:B I *L 0.0004 *D NOR2xp33_ASAP7_75t_L
*I *2780:B I *L 0.0004 *D NOR2xp33_ASAP7_75t_L
*I *2836:B I *L 0.0004 *D NOR2xp33_ASAP7_75t_L
*I *2772:A2 I *L 0.0006 *D A2O1A1Ixp33_ASAP7_75t_L
*I *2801:A2 I *L 0.0006 *D A2O1A1Ixp33_ASAP7_75t_L
*I *2793:A2 I *L 0.0006 *D A2O1A1Ixp33_ASAP7_75t_L
*I *2797:A2 I *L 0.0006 *D A2O1A1Ixp33_ASAP7_75t_L
*I *2767:A2 I *L 0.0006 *D A2O1A1Ixp33_ASAP7_75t_L
*I *2777:A2 I *L 0.0006 *D A2O1A1Ixp33_ASAP7_75t_L
*I *2840:C I *L 0.0006 *D O2A1O1Ixp33_ASAP7_75t_L
*I *2788:A2 I *L 0.0006 *D A2O1A1Ixp33_ASAP7_75t_L
*I *2867:Y O *L 0.0000 *D AOI21xp5_ASAP7_75t_L

*CAP
1 *3327:A 0
2 *2831:B 0
3 *2768:A 0
4 *2829:B 0
5 *2826:B 0
6 *2780:B 0
7 *2836:B 0
8 *2772:A2 0
9 *2801:A2 0
10 *2793:A2 0
11 *2797:A2 0
12 *2767:A2 0
13 *2777:A2 0
14 *2840:C 0
15 *2788:A2 0

*RES
1 *2867:Y *3327:A 0
2 *2867:Y *2831:B 0
3 *2867:Y *2768:A 0
4 *2867:Y *2829:B 0
5 *2867:Y *2826:B 0
6 *2867:Y *2780:B 0
7 *2867:Y *2836:B 0
8 *2867:Y *2772:A2 0
9 *2867:Y *2801:A2 0
10 *2867:Y *2793:A2 0
11 *2867:Y *2797:A2 0
12 *2867:Y *2767:A2 0
13 *2867:Y *2777:A2 0
14 *2867:Y *2840:C 0
15 *2867:Y *2788:A2 0
*END

*D_NET *958 0.000000

*CONN
*I *2834:B I *L 0.0004 *D NOR2xp33_ASAP7_75t_L
*I *2848:A I *L 0.0005 *D NAND3xp33_ASAP7_75t_L
*I *2847:A I *L 0.0005 *D NAND3xp33_ASAP7_75t_L
*I *2846:A I *L 0.0005 *D NAND3xp33_ASAP7_75t_L
*I *2866:Y O *L 0.0000 *D NAND5xp2_ASAP7_75t_L

*CAP
1 *2834:B 0
2 *2848:A 0
3 *2847:A 0
4 *2846:A 0

*RES
1 *2866:Y *2834:B 0
2 *2866:Y *2848:A 0
3 *2866:Y *2847:A 0
4 *2866:Y *2846:A 0
*END

*D_NET *959 0.000000

*CONN
*I *2832:B I *L 0.0005 *D NAND2xp5_ASAP7_75t_L
*I *3336:B I *L 0.0009 *D XNOR2xp5_ASAP7_75t_L
*I *2865:Y O *L 0.0000 *D NOR2xp33_ASAP7_75t_L

*CAP
1 *2832:B 0
2 *3336:B 0

*RES
1 *2865:Y *2832:B 0
2 *2865:Y *3336:B 0
*END

*D_NET *960 0.000000

*CONN
*I *2833:B I *L 0.0005 *D NAND2xp5_ASAP7_75t_L
*I *3335:B I *L 0.0010 *D XOR2xp5_ASAP7_75t_L
*I *2864:Y O *L 0.0000 *D NOR2xp33_ASAP7_75t_L

*CAP
1 *2833:B 0
2 *3335:B 0

*RES
1 *2864:Y *2833:B 0
2 *2864:Y *3335:B 0
*END

*D_NET *961 0.000000

*CONN
*I *2842:C I *L 0.0006 *D O2A1O1Ixp33_ASAP7_75t_L
*I *2791:A2 I *L 0.0006 *D A2O1A1Ixp33_ASAP7_75t_L
*I *2863:Y O *L 0.0000 *D NOR2xp33_ASAP7_75t_L

*CAP
1 *2842:C 0
2 *2791:A2 0

*RES
1 *2863:Y *2842:C 0
2 *2863:Y *2791:A2 0
*END

*D_NET *962 0.000000

*CONN
*I *2800:A2 I *L 0.0006 *D AOI22xp5_ASAP7_75t_L
*I *2845:Y O *L 0.0000 *D XNOR2xp5_ASAP7_75t_L

*CAP
1 *2800:A2 0

*RES
1 *2845:Y *2800:A2 0
*END

*D_NET *963 0.000000

*CONN
*I *2781:A1 I *L 0.0006 *D O2A1O1Ixp33_ASAP7_75t_L
*I *2844:Y O *L 0.0000 *D XOR2xp5_ASAP7_75t_L

*CAP
1 *2781:A1 0

*RES
1 *2844:Y *2781:A1 0
*END

*D_NET *964 0.000000

*CONN
*I *2810:A I *L 0.0003 *D NOR2xp33_ASAP7_75t_L
*I *2843:Y O *L 0.0000 *D AOI22xp33_ASAP7_75t_L

*CAP
1 *2810:A 0

*RES
1 *2843:Y *2810:A 0
*END

*D_NET *965 0.000000

*CONN
*I *2791:B I *L 0.0006 *D A2O1A1Ixp33_ASAP7_75t_L
*I *2842:Y O *L 0.0000 *D O2A1O1Ixp33_ASAP7_75t_L

*CAP
1 *2791:B 0

*RES
1 *2842:Y *2791:B 0
*END

*D_NET *966 0.000000

*CONN
*I *2615:D I *L 0.0006 *D DFFHQNx1_ASAP7_75t_L
*I *2841:Y O *L 0.0000 *D A2O1A1Ixp33_ASAP7_75t_L

*CAP
1 *2615:D 0

*RES
1 *2841:Y *2615:D 0
*END

*D_NET *967 0.000000

*CONN
*I *2799:B I *L 0.0006 *D A2O1A1Ixp33_ASAP7_75t_L
*I *2840:Y O *L 0.0000 *D O2A1O1Ixp33_ASAP7_75t_L

*CAP
1 *2799:B 0

*RES
1 *2840:Y *2799:B 0
*END

*D_NET *968 0.000000

*CONN
*I *2717:D I *L 0.0006 *D DFFHQNx1_ASAP7_75t_L
*I *2839:Y O *L 0.0000 *D A2O1A1Ixp33_ASAP7_75t_L

*CAP
1 *2717:D 0

*RES
1 *2839:Y *2717:D 0
*END

*D_NET *969 0.000000

*CONN
*I *2789:B I *L 0.0006 *D A2O1A1Ixp33_ASAP7_75t_L
*I *2838:Y O *L 0.0000 *D O2A1O1Ixp33_ASAP7_75t_L

*CAP
1 *2789:B 0

*RES
1 *2838:Y *2789:B 0
*END

*D_NET *970 0.000000

*CONN
*I *2798:B I *L 0.0006 *D A2O1A1Ixp33_ASAP7_75t_L
*I *2837:Y O *L 0.0000 *D NOR2xp33_ASAP7_75t_L

*CAP
1 *2798:B 0

*RES
1 *2837:Y *2798:B 0
*END

*D_NET *971 0.000000

*CONN
*I *2797:B I *L 0.0006 *D A2O1A1Ixp33_ASAP7_75t_L
*I *2836:Y O *L 0.0000 *D NOR2xp33_ASAP7_75t_L

*CAP
1 *2797:B 0

*RES
1 *2836:Y *2797:B 0
*END

*D_NET *972 0.000000

*CONN
*I *2835:A I *L 0.0006 *D INVx1_ASAP7_75t_L
*I *2804:A2 I *L 0.0005 *D OAI22xp33_ASAP7_75t_L
*I *2848:Y O *L 0.0000 *D NAND3xp33_ASAP7_75t_L

*CAP
1 *2835:A 0
2 *2804:A2 0

*RES
1 *2848:Y *2835:A 0
2 *2848:Y *2804:A2 0
*END

*D_NET *973 0.000000

*CONN
*I *2811:B I *L 0.0005 *D NAND2xp5_ASAP7_75t_L
*I *2773:A2 I *L 0.0005 *D AOI211xp5_ASAP7_75t_L
*I *2835:Y O *L 0.0000 *D INVx1_ASAP7_75t_L

*CAP
1 *2811:B 0
2 *2773:A2 0

*RES
1 *2835:Y *2811:B 0
2 *2835:Y *2773:A2 0
*END

*D_NET *974 0.000000

*CONN
*I *2808:A2 I *L 0.0006 *D OAI21xp5_ASAP7_75t_L
*I *2809:A3 I *L 0.0005 *D OAI33xp33_ASAP7_75t_L
*I *2806:A1 I *L 0.0005 *D OAI32xp33_ASAP7_75t_L
*I *2847:Y O *L 0.0000 *D NAND3xp33_ASAP7_75t_L

*CAP
1 *2808:A2 0
2 *2809:A3 0
3 *2806:A1 0

*RES
1 *2847:Y *2808:A2 0
2 *2847:Y *2809:A3 0
3 *2847:Y *2806:A1 0
*END

*D_NET *975 0.000000

*CONN
*I *2809:B1 I *L 0.0005 *D OAI33xp33_ASAP7_75t_L
*I *2806:B1 I *L 0.0004 *D OAI32xp33_ASAP7_75t_L
*I *2846:Y O *L 0.0000 *D NAND3xp33_ASAP7_75t_L

*CAP
1 *2809:B1 0
2 *2806:B1 0

*RES
1 *2846:Y *2809:B1 0
2 *2846:Y *2806:B1 0
*END

*D_NET *976 0.000000

*CONN
*I *2802:B I *L 0.0009 *D XNOR2xp5_ASAP7_75t_L
*I *2833:Y O *L 0.0000 *D NAND2xp5_ASAP7_75t_L

*CAP
1 *2802:B 0

*RES
1 *2833:Y *2802:B 0
*END

*D_NET *977 0.000000

*CONN
*I *2803:B I *L 0.0010 *D XOR2xp5_ASAP7_75t_L
*I *2832:Y O *L 0.0000 *D NAND2xp5_ASAP7_75t_L

*CAP
1 *2803:B 0

*RES
1 *2832:Y *2803:B 0
*END

*D_NET *978 0.000000

*CONN
*I *2788:B I *L 0.0006 *D A2O1A1Ixp33_ASAP7_75t_L
*I *2831:Y O *L 0.0000 *D NOR2xp33_ASAP7_75t_L

*CAP
1 *2788:B 0

*RES
1 *2831:Y *2788:B 0
*END

*D_NET *979 0.000000

*CONN
*I *2630:D I *L 0.0006 *D DFFHQNx1_ASAP7_75t_L
*I *2830:Y O *L 0.0000 *D A2O1A1Ixp33_ASAP7_75t_L

*CAP
1 *2630:D 0

*RES
1 *2830:Y *2630:D 0
*END

*D_NET *980 0.000000

*CONN
*I *2793:B I *L 0.0006 *D A2O1A1Ixp33_ASAP7_75t_L
*I *2829:Y O *L 0.0000 *D NOR2xp33_ASAP7_75t_L

*CAP
1 *2793:B 0

*RES
1 *2829:Y *2793:B 0
*END

*D_NET *981 0.000000

*CONN
*I *2794:B I *L 0.0006 *D A2O1A1Ixp33_ASAP7_75t_L
*I *2828:Y O *L 0.0000 *D NOR2xp33_ASAP7_75t_L

*CAP
1 *2794:B 0

*RES
1 *2828:Y *2794:B 0
*END

*D_NET *982 0.000000

*CONN
*I *2795:B I *L 0.0006 *D A2O1A1Ixp33_ASAP7_75t_L
*I *2827:Y O *L 0.0000 *D NOR2xp33_ASAP7_75t_L

*CAP
1 *2795:B 0

*RES
1 *2827:Y *2795:B 0
*END

*D_NET *983 0.000000

*CONN
*I *2796:B I *L 0.0006 *D A2O1A1Ixp33_ASAP7_75t_L
*I *2826:Y O *L 0.0000 *D NOR2xp33_ASAP7_75t_L

*CAP
1 *2796:B 0

*RES
1 *2826:Y *2796:B 0
*END

*D_NET *984 0.000000

*CONN
*I *2801:B I *L 0.0006 *D A2O1A1Ixp33_ASAP7_75t_L
*I *2825:Y O *L 0.0000 *D NOR2xp33_ASAP7_75t_L

*CAP
1 *2801:B 0

*RES
1 *2825:Y *2801:B 0
*END

*D_NET *985 0.000000

*CONN
*I *2786:A1 I *L 0.0005 *D AOI221xp5_ASAP7_75t_L
*I *2779:A1 I *L 0.0005 *D AOI221xp5_ASAP7_75t_L
*I *2807:A2 I *L 0.0004 *D AO22x1_ASAP7_75t_L
*I *2834:Y O *L 0.0000 *D NOR2xp33_ASAP7_75t_L

*CAP
1 *2786:A1 0
2 *2779:A1 0
3 *2807:A2 0

*RES
1 *2834:Y *2786:A1 0
2 *2834:Y *2779:A1 0
3 *2834:Y *2807:A2 0
*END

*D_NET *986 0.000000

*CONN
*I *2689:D I *L 0.0006 *D DFFHQNx1_ASAP7_75t_L
*I *2824:Y O *L 0.0000 *D A2O1A1Ixp33_ASAP7_75t_L

*CAP
1 *2689:D 0

*RES
1 *2824:Y *2689:D 0
*END

*D_NET *987 0.000000

*CONN
*I *2792:A I *L 0.0003 *D NOR2xp33_ASAP7_75t_L
*I *2823:Y O *L 0.0000 *D AOI22xp5_ASAP7_75t_L

*CAP
1 *2792:A 0

*RES
1 *2823:Y *2792:A 0
*END

*D_NET *988 0.000000

*CONN
*I *2616:D I *L 0.0006 *D DFFHQNx1_ASAP7_75t_L
*I *2822:Y O *L 0.0000 *D A2O1A1Ixp33_ASAP7_75t_L

*CAP
1 *2616:D 0

*RES
1 *2822:Y *2616:D 0
*END

*D_NET *989 0.000000

*CONN
*I *2652:D I *L 0.0006 *D DFFHQNx1_ASAP7_75t_L
*I *2821:Y O *L 0.0000 *D A2O1A1Ixp33_ASAP7_75t_L

*CAP
1 *2652:D 0

*RES
1 *2821:Y *2652:D 0
*END

*D_NET *990 0.000000

*CONN
*I *2715:D I *L 0.0006 *D DFFHQNx1_ASAP7_75t_L
*I *2820:Y O *L 0.0000 *D A2O1A1Ixp33_ASAP7_75t_L

*CAP
1 *2715:D 0

*RES
1 *2820:Y *2715:D 0
*END

*D_NET *991 0.000000

*CONN
*I *2714:D I *L 0.0006 *D DFFHQNx1_ASAP7_75t_L
*I *2819:Y O *L 0.0000 *D A2O1A1Ixp33_ASAP7_75t_L

*CAP
1 *2714:D 0

*RES
1 *2819:Y *2714:D 0
*END

*D_NET *992 0.000000

*CONN
*I *2713:D I *L 0.0006 *D DFFHQNx1_ASAP7_75t_L
*I *2818:Y O *L 0.0000 *D A2O1A1Ixp33_ASAP7_75t_L

*CAP
1 *2713:D 0

*RES
1 *2818:Y *2713:D 0
*END

*D_NET *993 0.000000

*CONN
*I *2710:D I *L 0.0006 *D DFFHQNx1_ASAP7_75t_L
*I *2817:Y O *L 0.0000 *D A2O1A1Ixp33_ASAP7_75t_L

*CAP
1 *2710:D 0

*RES
1 *2817:Y *2710:D 0
*END

*D_NET *994 0.000000

*CONN
*I *2711:D I *L 0.0006 *D DFFHQNx1_ASAP7_75t_L
*I *2816:Y O *L 0.0000 *D A2O1A1Ixp33_ASAP7_75t_L

*CAP
1 *2711:D 0

*RES
1 *2816:Y *2711:D 0
*END

*D_NET *995 0.000000

*CONN
*I *2783:B I *L 0.0006 *D A2O1A1Ixp33_ASAP7_75t_L
*I *2815:Y O *L 0.0000 *D O2A1O1Ixp33_ASAP7_75t_L

*CAP
1 *2783:B 0

*RES
1 *2815:Y *2783:B 0
*END

*D_NET *996 0.000000

*CONN
*I *2712:D I *L 0.0006 *D DFFHQNx1_ASAP7_75t_L
*I *2814:Y O *L 0.0000 *D A2O1A1Ixp33_ASAP7_75t_L

*CAP
1 *2712:D 0

*RES
1 *2814:Y *2712:D 0
*END

*D_NET *997 0.000000

*CONN
*I *2709:D I *L 0.0006 *D DFFHQNx1_ASAP7_75t_L
*I *2813:Y O *L 0.0000 *D A2O1A1Ixp33_ASAP7_75t_L

*CAP
1 *2709:D 0

*RES
1 *2813:Y *2709:D 0
*END

*D_NET *998 0.000000

*CONN
*I *2708:D I *L 0.0006 *D DFFHQNx1_ASAP7_75t_L
*I *2812:Y O *L 0.0000 *D A2O1A1Ixp33_ASAP7_75t_L

*CAP
1 *2708:D 0

*RES
1 *2812:Y *2708:D 0
*END

*D_NET *999 0.000000

*CONN
*I *2808:B I *L 0.0006 *D OAI21xp5_ASAP7_75t_L
*I *2811:Y O *L 0.0000 *D NAND2xp5_ASAP7_75t_L

*CAP
1 *2808:B 0

*RES
1 *2811:Y *2808:B 0
*END

*D_NET *1000 0.000000

*CONN
*I *2784:B I *L 0.0006 *D A2O1A1Ixp33_ASAP7_75t_L
*I *2810:Y O *L 0.0000 *D NOR2xp33_ASAP7_75t_L

*CAP
1 *2784:B 0

*RES
1 *2810:Y *2784:B 0
*END

*D_NET *1001 0.000000

*CONN
*I *2786:C I *L 0.0005 *D AOI221xp5_ASAP7_75t_L
*I *2808:Y O *L 0.0000 *D OAI21xp5_ASAP7_75t_L

*CAP
1 *2786:C 0

*RES
1 *2808:Y *2786:C 0
*END

*D_NET *1002 0.000000

*CONN
*I *2773:C I *L 0.0005 *D AOI211xp5_ASAP7_75t_L
*I *2807:Y O *L 0.0000 *D AO22x1_ASAP7_75t_L

*CAP
1 *2773:C 0

*RES
1 *2807:Y *2773:C 0
*END

*D_NET *1003 0.000000

*CONN
*I *2779:C I *L 0.0005 *D AOI221xp5_ASAP7_75t_L
*I *2806:Y O *L 0.0000 *D OAI32xp33_ASAP7_75t_L

*CAP
1 *2779:C 0

*RES
1 *2806:Y *2779:C 0
*END

*D_NET *1004 0.000000

*CONN
*I *2787:B I *L 0.0004 *D NOR2xp33_ASAP7_75t_L
*I *2805:Y O *L 0.0000 *D AOI333xp33_ASAP7_75t_L

*CAP
1 *2787:B 0

*RES
1 *2805:Y *2787:B 0
*END

*D_NET *1005 0.000000

*CONN
*I *2782:A I *L 0.0003 *D NOR2xp33_ASAP7_75t_L
*I *2804:Y O *L 0.0000 *D OAI22xp33_ASAP7_75t_L

*CAP
1 *2782:A 0

*RES
1 *2804:Y *2782:A 0
*END

*D_NET *1006 0.000000

*CONN
*I *2771:A1 I *L 0.0006 *D O2A1O1Ixp33_ASAP7_75t_L
*I *2803:Y O *L 0.0000 *D XOR2xp5_ASAP7_75t_L

*CAP
1 *2771:A1 0

*RES
1 *2803:Y *2771:A1 0
*END

*D_NET *1007 0.000000

*CONN
*I *2778:A2 I *L 0.0006 *D AOI22xp5_ASAP7_75t_L
*I *2802:Y O *L 0.0000 *D XNOR2xp5_ASAP7_75t_L

*CAP
1 *2778:A2 0

*RES
1 *2802:Y *2778:A2 0
*END

*D_NET *1008 0.000000

*CONN
*I *2695:D I *L 0.0006 *D DFFHQNx1_ASAP7_75t_L
*I *2801:Y O *L 0.0000 *D A2O1A1Ixp33_ASAP7_75t_L

*CAP
1 *2695:D 0

*RES
1 *2801:Y *2695:D 0
*END

*D_NET *1009 0.000000

*CONN
*I *2780:A I *L 0.0003 *D NOR2xp33_ASAP7_75t_L
*I *2800:Y O *L 0.0000 *D AOI22xp5_ASAP7_75t_L

*CAP
1 *2780:A 0

*RES
1 *2800:Y *2780:A 0
*END

*D_NET *1010 0.000000

*CONN
*I *2694:D I *L 0.0006 *D DFFHQNx1_ASAP7_75t_L
*I *2799:Y O *L 0.0000 *D A2O1A1Ixp33_ASAP7_75t_L

*CAP
1 *2694:D 0

*RES
1 *2799:Y *2694:D 0
*END

*D_NET *1011 0.000000

*CONN
*I *2702:D I *L 0.0006 *D DFFHQNx1_ASAP7_75t_L
*I *2798:Y O *L 0.0000 *D A2O1A1Ixp33_ASAP7_75t_L

*CAP
1 *2702:D 0

*RES
1 *2798:Y *2702:D 0
*END

*D_NET *1012 0.000000

*CONN
*I *2701:D I *L 0.0006 *D DFFHQNx1_ASAP7_75t_L
*I *2797:Y O *L 0.0000 *D A2O1A1Ixp33_ASAP7_75t_L

*CAP
1 *2701:D 0

*RES
1 *2797:Y *2701:D 0
*END

*D_NET *1013 0.000000

*CONN
*I *2700:D I *L 0.0006 *D DFFHQNx1_ASAP7_75t_L
*I *2796:Y O *L 0.0000 *D A2O1A1Ixp33_ASAP7_75t_L

*CAP
1 *2700:D 0

*RES
1 *2796:Y *2700:D 0
*END

*D_NET *1014 0.000000

*CONN
*I *2699:D I *L 0.0006 *D DFFHQNx1_ASAP7_75t_L
*I *2795:Y O *L 0.0000 *D A2O1A1Ixp33_ASAP7_75t_L

*CAP
1 *2699:D 0

*RES
1 *2795:Y *2699:D 0
*END

*D_NET *1015 0.000000

*CONN
*I *2698:D I *L 0.0006 *D DFFHQNx1_ASAP7_75t_L
*I *2794:Y O *L 0.0000 *D A2O1A1Ixp33_ASAP7_75t_L

*CAP
1 *2698:D 0

*RES
1 *2794:Y *2698:D 0
*END

*D_NET *1016 0.000000

*CONN
*I *2697:D I *L 0.0006 *D DFFHQNx1_ASAP7_75t_L
*I *2793:Y O *L 0.0000 *D A2O1A1Ixp33_ASAP7_75t_L

*CAP
1 *2697:D 0

*RES
1 *2793:Y *2697:D 0
*END

*D_NET *1017 0.000000

*CONN
*I *2773:B I *L 0.0005 *D AOI211xp5_ASAP7_75t_L
*I *2782:B I *L 0.0004 *D NOR2xp33_ASAP7_75t_L
*I *2809:Y O *L 0.0000 *D OAI33xp33_ASAP7_75t_L

*CAP
1 *2773:B 0
2 *2782:B 0

*RES
1 *2809:Y *2773:B 0
2 *2809:Y *2782:B 0
*END

*D_NET *1018 0.000000

*CONN
*I *2777:B I *L 0.0006 *D A2O1A1Ixp33_ASAP7_75t_L
*I *2792:Y O *L 0.0000 *D NOR2xp33_ASAP7_75t_L

*CAP
1 *2777:B 0

*RES
1 *2792:Y *2777:B 0
*END

*D_NET *1019 0.000000

*CONN
*I *2653:D I *L 0.0006 *D DFFHQNx1_ASAP7_75t_L
*I *2791:Y O *L 0.0000 *D A2O1A1Ixp33_ASAP7_75t_L

*CAP
1 *2653:D 0

*RES
1 *2791:Y *2653:D 0
*END

*D_NET *1020 0.000000

*CONN
*I *2776:B I *L 0.0006 *D A2O1A1Ixp33_ASAP7_75t_L
*I *2790:Y O *L 0.0000 *D O2A1O1Ixp33_ASAP7_75t_L

*CAP
1 *2776:B 0

*RES
1 *2790:Y *2776:B 0
*END

*D_NET *1021 0.000000

*CONN
*I *2617:D I *L 0.0006 *D DFFHQNx1_ASAP7_75t_L
*I *2789:Y O *L 0.0000 *D A2O1A1Ixp33_ASAP7_75t_L

*CAP
1 *2617:D 0

*RES
1 *2789:Y *2617:D 0
*END

*D_NET *1022 0.000000

*CONN
*I *2696:D I *L 0.0006 *D DFFHQNx1_ASAP7_75t_L
*I *2788:Y O *L 0.0000 *D A2O1A1Ixp33_ASAP7_75t_L

*CAP
1 *2696:D 0

*RES
1 *2788:Y *2696:D 0
*END

*D_NET *1023 0.000000

*CONN
*I *2769:B I *L 0.0006 *D A2O1A1Ixp33_ASAP7_75t_L
*I *2787:Y O *L 0.0000 *D NOR2xp33_ASAP7_75t_L

*CAP
1 *2769:B 0

*RES
1 *2787:Y *2769:B 0
*END

*D_NET *1024 0.000000

*CONN
*I *2690:D I *L 0.0006 *D DFFHQNx1_ASAP7_75t_L
*I *2786:Y O *L 0.0000 *D AOI221xp5_ASAP7_75t_L

*CAP
1 *2690:D 0

*RES
1 *2786:Y *2690:D 0
*END

*D_NET *1025 0.000000

*CONN
*I *2774:B I *L 0.0004 *D NOR2xp33_ASAP7_75t_L
*I *2785:Y O *L 0.0000 *D AOI22xp5_ASAP7_75t_L

*CAP
1 *2774:B 0

*RES
1 *2785:Y *2774:B 0
*END

*D_NET *1026 0.000000

*CONN
*I *2703:D I *L 0.0006 *D DFFHQNx1_ASAP7_75t_L
*I *2784:Y O *L 0.0000 *D A2O1A1Ixp33_ASAP7_75t_L

*CAP
1 *2703:D 0

*RES
1 *2784:Y *2703:D 0
*END

*D_NET *1027 0.000000

*CONN
*I *2618:D I *L 0.0006 *D DFFHQNx1_ASAP7_75t_L
*I *2783:Y O *L 0.0000 *D A2O1A1Ixp33_ASAP7_75t_L

*CAP
1 *2618:D 0

*RES
1 *2783:Y *2618:D 0
*END

*D_NET *1028 0.000000

*CONN
*I *2691:D I *L 0.0006 *D DFFHQNx1_ASAP7_75t_L
*I *2782:Y O *L 0.0000 *D NOR2xp33_ASAP7_75t_L

*CAP
1 *2691:D 0

*RES
1 *2782:Y *2691:D 0
*END

*D_NET *1029 0.000000

*CONN
*I *2770:B I *L 0.0006 *D A2O1A1Ixp33_ASAP7_75t_L
*I *2781:Y O *L 0.0000 *D O2A1O1Ixp33_ASAP7_75t_L

*CAP
1 *2770:B 0

*RES
1 *2781:Y *2770:B 0
*END

*D_NET *1030 0.000000

*CONN
*I *2772:B I *L 0.0006 *D A2O1A1Ixp33_ASAP7_75t_L
*I *2780:Y O *L 0.0000 *D NOR2xp33_ASAP7_75t_L

*CAP
1 *2772:B 0

*RES
1 *2780:Y *2772:B 0
*END

*D_NET *1031 0.000000

*CONN
*I *2693:D I *L 0.0006 *D DFFHQNx1_ASAP7_75t_L
*I *2779:Y O *L 0.0000 *D AOI221xp5_ASAP7_75t_L

*CAP
1 *2693:D 0

*RES
1 *2779:Y *2693:D 0
*END

*D_NET *1032 0.000000

*CONN
*I *2768:B I *L 0.0004 *D NOR2xp33_ASAP7_75t_L
*I *2778:Y O *L 0.0000 *D AOI22xp5_ASAP7_75t_L

*CAP
1 *2768:B 0

*RES
1 *2778:Y *2768:B 0
*END

*D_NET *1033 0.000000

*CONN
*I *2704:D I *L 0.0006 *D DFFHQNx1_ASAP7_75t_L
*I *2777:Y O *L 0.0000 *D A2O1A1Ixp33_ASAP7_75t_L

*CAP
1 *2704:D 0

*RES
1 *2777:Y *2704:D 0
*END

*D_NET *1034 0.000000

*CONN
*I *2619:D I *L 0.0006 *D DFFHQNx1_ASAP7_75t_L
*I *2776:Y O *L 0.0000 *D A2O1A1Ixp33_ASAP7_75t_L

*CAP
1 *2619:D 0

*RES
1 *2776:Y *2619:D 0
*END

*D_NET *1035 0.000000

*CONN
*I *2766:B I *L 0.0006 *D A2O1A1Ixp33_ASAP7_75t_L
*I *2775:Y O *L 0.0000 *D O2A1O1Ixp33_ASAP7_75t_L

*CAP
1 *2766:B 0

*RES
1 *2775:Y *2766:B 0
*END

*D_NET *1036 0.000000

*CONN
*I *2767:B I *L 0.0006 *D A2O1A1Ixp33_ASAP7_75t_L
*I *2774:Y O *L 0.0000 *D NOR2xp33_ASAP7_75t_L

*CAP
1 *2767:B 0

*RES
1 *2774:Y *2767:B 0
*END

*D_NET *1037 0.000000

*CONN
*I *2692:D I *L 0.0006 *D DFFHQNx1_ASAP7_75t_L
*I *2773:Y O *L 0.0000 *D AOI211xp5_ASAP7_75t_L

*CAP
1 *2692:D 0

*RES
1 *2773:Y *2692:D 0
*END

*D_NET *1038 0.000000

*CONN
*I *2705:D I *L 0.0006 *D DFFHQNx1_ASAP7_75t_L
*I *2772:Y O *L 0.0000 *D A2O1A1Ixp33_ASAP7_75t_L

*CAP
1 *2705:D 0

*RES
1 *2772:Y *2705:D 0
*END

*D_NET *1039 0.000000

*CONN
*I *2764:B I *L 0.0006 *D A2O1A1Ixp33_ASAP7_75t_L
*I *2771:Y O *L 0.0000 *D O2A1O1Ixp33_ASAP7_75t_L

*CAP
1 *2764:B 0

*RES
1 *2771:Y *2764:B 0
*END

*D_NET *1040 0.000000

*CONN
*I *2620:D I *L 0.0006 *D DFFHQNx1_ASAP7_75t_L
*I *2770:Y O *L 0.0000 *D A2O1A1Ixp33_ASAP7_75t_L

*CAP
1 *2620:D 0

*RES
1 *2770:Y *2620:D 0
*END

*D_NET *1041 0.000000

*CONN
*I *2686:D I *L 0.0006 *D DFFHQNx1_ASAP7_75t_L
*I *2769:Y O *L 0.0000 *D A2O1A1Ixp33_ASAP7_75t_L

*CAP
1 *2686:D 0

*RES
1 *2769:Y *2686:D 0
*END

*D_NET *1042 0.000000

*CONN
*I *2765:B I *L 0.0006 *D A2O1A1Ixp33_ASAP7_75t_L
*I *2768:Y O *L 0.0000 *D NOR2xp33_ASAP7_75t_L

*CAP
1 *2765:B 0

*RES
1 *2768:Y *2765:B 0
*END

*D_NET *1043 0.000000

*CONN
*I *2706:D I *L 0.0006 *D DFFHQNx1_ASAP7_75t_L
*I *2767:Y O *L 0.0000 *D A2O1A1Ixp33_ASAP7_75t_L

*CAP
1 *2706:D 0

*RES
1 *2767:Y *2706:D 0
*END

*D_NET *1044 0.000000

*CONN
*I *2621:D I *L 0.0006 *D DFFHQNx1_ASAP7_75t_L
*I *2766:Y O *L 0.0000 *D A2O1A1Ixp33_ASAP7_75t_L

*CAP
1 *2621:D 0

*RES
1 *2766:Y *2621:D 0
*END

*D_NET *1045 0.000000

*CONN
*I *2707:D I *L 0.0006 *D DFFHQNx1_ASAP7_75t_L
*I *2765:Y O *L 0.0000 *D A2O1A1Ixp33_ASAP7_75t_L

*CAP
1 *2707:D 0

*RES
1 *2765:Y *2707:D 0
*END

*D_NET *1046 0.000000

*CONN
*I *2622:D I *L 0.0006 *D DFFHQNx1_ASAP7_75t_L
*I *2764:Y O *L 0.0000 *D A2O1A1Ixp33_ASAP7_75t_L

*CAP
1 *2622:D 0

*RES
1 *2764:Y *2622:D 0
*END

*D_NET *1047 0.000000

*CONN
*I *2543:B2 I *L 0.0004 *D AO22x1_ASAP7_75t_L
*I *2542:B2 I *L 0.0004 *D AO22x1_ASAP7_75t_L
*I *2544:B2 I *L 0.0004 *D AO22x1_ASAP7_75t_L
*I *2545:B2 I *L 0.0004 *D AO22x1_ASAP7_75t_L
*I *2590:A2 I *L 0.0004 *D AO22x1_ASAP7_75t_L
*I *2593:A2 I *L 0.0004 *D AO22x1_ASAP7_75t_L
*I *2591:A2 I *L 0.0004 *D AO22x1_ASAP7_75t_L
*I *2592:A2 I *L 0.0004 *D AO22x1_ASAP7_75t_L
*I *2588:A2 I *L 0.0004 *D AO22x1_ASAP7_75t_L
*I *2589:A2 I *L 0.0004 *D AO22x1_ASAP7_75t_L
*I *2586:A2 I *L 0.0004 *D AO22x1_ASAP7_75t_L
*I *2594:A2 I *L 0.0004 *D AO22x1_ASAP7_75t_L
*I *2587:A2 I *L 0.0004 *D AO22x1_ASAP7_75t_L
*I *2595:A2 I *L 0.0004 *D AO22x1_ASAP7_75t_L
*I *2608:Y O *L 0.0000 *D INVx1_ASAP7_75t_L

*CAP
1 *2543:B2 0
2 *2542:B2 0
3 *2544:B2 0
4 *2545:B2 0
5 *2590:A2 0
6 *2593:A2 0
7 *2591:A2 0
8 *2592:A2 0
9 *2588:A2 0
10 *2589:A2 0
11 *2586:A2 0
12 *2594:A2 0
13 *2587:A2 0
14 *2595:A2 0

*RES
1 *2608:Y *2543:B2 0
2 *2608:Y *2542:B2 0
3 *2608:Y *2544:B2 0
4 *2608:Y *2545:B2 0
5 *2608:Y *2590:A2 0
6 *2608:Y *2593:A2 0
7 *2608:Y *2591:A2 0
8 *2608:Y *2592:A2 0
9 *2608:Y *2588:A2 0
10 *2608:Y *2589:A2 0
11 *2608:Y *2586:A2 0
12 *2608:Y *2594:A2 0
13 *2608:Y *2587:A2 0
14 *2608:Y *2595:A2 0
*END

*D_NET *1048 0.000000

*CONN
*I *2598:A I *L 0.0003 *D NOR2xp33_ASAP7_75t_L
*I *2607:Y O *L 0.0000 *D INVx1_ASAP7_75t_L

*CAP
1 *2598:A 0

*RES
1 *2607:Y *2598:A 0
*END

*D_NET *1049 0.000000

*CONN
*I *2599:A I *L 0.0003 *D NOR2xp33_ASAP7_75t_L
*I *2606:Y O *L 0.0000 *D INVx1_ASAP7_75t_L

*CAP
1 *2599:A 0

*RES
1 *2606:Y *2599:A 0
*END

*D_NET *1050 0.000000

*CONN
*I *2596:A I *L 0.0003 *D NOR2xp33_ASAP7_75t_L
*I *2605:Y O *L 0.0000 *D INVx1_ASAP7_75t_L

*CAP
1 *2596:A 0

*RES
1 *2605:Y *2596:A 0
*END

*D_NET *1051 0.000000

*CONN
*I *2597:A I *L 0.0003 *D NOR2xp33_ASAP7_75t_L
*I *2604:Y O *L 0.0000 *D INVx1_ASAP7_75t_L

*CAP
1 *2597:A 0

*RES
1 *2604:Y *2597:A 0
*END

*D_NET *1052 0.000000

*CONN
*I *2556:A2 I *L 0.0004 *D AO22x1_ASAP7_75t_L
*I *2564:A2 I *L 0.0004 *D AO22x1_ASAP7_75t_L
*I *2569:A2 I *L 0.0004 *D AO22x1_ASAP7_75t_L
*I *2554:A2 I *L 0.0004 *D AO22x1_ASAP7_75t_L
*I *2560:A2 I *L 0.0004 *D AO22x1_ASAP7_75t_L
*I *2565:A2 I *L 0.0004 *D AO22x1_ASAP7_75t_L
*I *2555:A2 I *L 0.0004 *D AO22x1_ASAP7_75t_L
*I *2573:A2 I *L 0.0004 *D AO22x1_ASAP7_75t_L
*I *2603:Y O *L 0.0000 *D NOR2xp33_ASAP7_75t_L

*CAP
1 *2556:A2 0
2 *2564:A2 0
3 *2569:A2 0
4 *2554:A2 0
5 *2560:A2 0
6 *2565:A2 0
7 *2555:A2 0
8 *2573:A2 0

*RES
1 *2603:Y *2556:A2 0
2 *2603:Y *2564:A2 0
3 *2603:Y *2569:A2 0
4 *2603:Y *2554:A2 0
5 *2603:Y *2560:A2 0
6 *2603:Y *2565:A2 0
7 *2603:Y *2555:A2 0
8 *2603:Y *2573:A2 0
*END

*D_NET *1053 0.000000

*CONN
*I *2562:A2 I *L 0.0004 *D AO22x1_ASAP7_75t_L
*I *2566:A2 I *L 0.0004 *D AO22x1_ASAP7_75t_L
*I *2568:A2 I *L 0.0004 *D AO22x1_ASAP7_75t_L
*I *2559:A2 I *L 0.0004 *D AO22x1_ASAP7_75t_L
*I *2563:A2 I *L 0.0004 *D AO22x1_ASAP7_75t_L
*I *2567:A2 I *L 0.0004 *D AO22x1_ASAP7_75t_L
*I *2561:A2 I *L 0.0004 *D AO22x1_ASAP7_75t_L
*I *2585:A2 I *L 0.0004 *D AO22x1_ASAP7_75t_L
*I *2602:Y O *L 0.0000 *D NOR2xp33_ASAP7_75t_L

*CAP
1 *2562:A2 0
2 *2566:A2 0
3 *2568:A2 0
4 *2559:A2 0
5 *2563:A2 0
6 *2567:A2 0
7 *2561:A2 0
8 *2585:A2 0

*RES
1 *2602:Y *2562:A2 0
2 *2602:Y *2566:A2 0
3 *2602:Y *2568:A2 0
4 *2602:Y *2559:A2 0
5 *2602:Y *2563:A2 0
6 *2602:Y *2567:A2 0
7 *2602:Y *2561:A2 0
8 *2602:Y *2585:A2 0
*END

*D_NET *1054 0.000000

*CONN
*I *2575:A2 I *L 0.0004 *D AO22x1_ASAP7_75t_L
*I *2577:A2 I *L 0.0004 *D AO22x1_ASAP7_75t_L
*I *2581:A2 I *L 0.0004 *D AO22x1_ASAP7_75t_L
*I *2571:A2 I *L 0.0004 *D AO22x1_ASAP7_75t_L
*I *2576:A2 I *L 0.0004 *D AO22x1_ASAP7_75t_L
*I *2579:A2 I *L 0.0004 *D AO22x1_ASAP7_75t_L
*I *2572:A2 I *L 0.0004 *D AO22x1_ASAP7_75t_L
*I *2582:A2 I *L 0.0004 *D AO22x1_ASAP7_75t_L
*I *2601:Y O *L 0.0000 *D NOR2xp33_ASAP7_75t_L

*CAP
1 *2575:A2 0
2 *2577:A2 0
3 *2581:A2 0
4 *2571:A2 0
5 *2576:A2 0
6 *2579:A2 0
7 *2572:A2 0
8 *2582:A2 0

*RES
1 *2601:Y *2575:A2 0
2 *2601:Y *2577:A2 0
3 *2601:Y *2581:A2 0
4 *2601:Y *2571:A2 0
5 *2601:Y *2576:A2 0
6 *2601:Y *2579:A2 0
7 *2601:Y *2572:A2 0
8 *2601:Y *2582:A2 0
*END

*D_NET *1055 0.000000

*CONN
*I *2570:A2 I *L 0.0004 *D AO22x1_ASAP7_75t_L
*I *2578:A2 I *L 0.0004 *D AO22x1_ASAP7_75t_L
*I *2583:A2 I *L 0.0004 *D AO22x1_ASAP7_75t_L
*I *2557:A2 I *L 0.0004 *D AO22x1_ASAP7_75t_L
*I *2574:A2 I *L 0.0004 *D AO22x1_ASAP7_75t_L
*I *2580:A2 I *L 0.0004 *D AO22x1_ASAP7_75t_L
*I *2558:A2 I *L 0.0004 *D AO22x1_ASAP7_75t_L
*I *2584:A2 I *L 0.0004 *D AO22x1_ASAP7_75t_L
*I *2600:Y O *L 0.0000 *D NOR2xp33_ASAP7_75t_L

*CAP
1 *2570:A2 0
2 *2578:A2 0
3 *2583:A2 0
4 *2557:A2 0
5 *2574:A2 0
6 *2580:A2 0
7 *2558:A2 0
8 *2584:A2 0

*RES
1 *2600:Y *2570:A2 0
2 *2600:Y *2578:A2 0
3 *2600:Y *2583:A2 0
4 *2600:Y *2557:A2 0
5 *2600:Y *2574:A2 0
6 *2600:Y *2580:A2 0
7 *2600:Y *2558:A2 0
8 *2600:Y *2584:A2 0
*END

*D_NET *1056 0.000000

*CONN
*I *2556:B2 I *L 0.0004 *D AO22x1_ASAP7_75t_L
*I *2564:B2 I *L 0.0004 *D AO22x1_ASAP7_75t_L
*I *2569:B2 I *L 0.0004 *D AO22x1_ASAP7_75t_L
*I *2554:B2 I *L 0.0004 *D AO22x1_ASAP7_75t_L
*I *2560:B2 I *L 0.0004 *D AO22x1_ASAP7_75t_L
*I *2565:B2 I *L 0.0004 *D AO22x1_ASAP7_75t_L
*I *2555:B2 I *L 0.0004 *D AO22x1_ASAP7_75t_L
*I *2573:B2 I *L 0.0004 *D AO22x1_ASAP7_75t_L
*I *2599:Y O *L 0.0000 *D NOR2xp33_ASAP7_75t_L

*CAP
1 *2556:B2 0
2 *2564:B2 0
3 *2569:B2 0
4 *2554:B2 0
5 *2560:B2 0
6 *2565:B2 0
7 *2555:B2 0
8 *2573:B2 0

*RES
1 *2599:Y *2556:B2 0
2 *2599:Y *2564:B2 0
3 *2599:Y *2569:B2 0
4 *2599:Y *2554:B2 0
5 *2599:Y *2560:B2 0
6 *2599:Y *2565:B2 0
7 *2599:Y *2555:B2 0
8 *2599:Y *2573:B2 0
*END

*D_NET *1057 0.000000

*CONN
*I *2562:B2 I *L 0.0004 *D AO22x1_ASAP7_75t_L
*I *2566:B2 I *L 0.0004 *D AO22x1_ASAP7_75t_L
*I *2568:B2 I *L 0.0004 *D AO22x1_ASAP7_75t_L
*I *2559:B2 I *L 0.0004 *D AO22x1_ASAP7_75t_L
*I *2563:B2 I *L 0.0004 *D AO22x1_ASAP7_75t_L
*I *2567:B2 I *L 0.0004 *D AO22x1_ASAP7_75t_L
*I *2561:B2 I *L 0.0004 *D AO22x1_ASAP7_75t_L
*I *2585:B2 I *L 0.0004 *D AO22x1_ASAP7_75t_L
*I *2598:Y O *L 0.0000 *D NOR2xp33_ASAP7_75t_L

*CAP
1 *2562:B2 0
2 *2566:B2 0
3 *2568:B2 0
4 *2559:B2 0
5 *2563:B2 0
6 *2567:B2 0
7 *2561:B2 0
8 *2585:B2 0

*RES
1 *2598:Y *2562:B2 0
2 *2598:Y *2566:B2 0
3 *2598:Y *2568:B2 0
4 *2598:Y *2559:B2 0
5 *2598:Y *2563:B2 0
6 *2598:Y *2567:B2 0
7 *2598:Y *2561:B2 0
8 *2598:Y *2585:B2 0
*END

*D_NET *1058 0.000000

*CONN
*I *2575:B2 I *L 0.0004 *D AO22x1_ASAP7_75t_L
*I *2577:B2 I *L 0.0004 *D AO22x1_ASAP7_75t_L
*I *2581:B2 I *L 0.0004 *D AO22x1_ASAP7_75t_L
*I *2571:B2 I *L 0.0004 *D AO22x1_ASAP7_75t_L
*I *2576:B2 I *L 0.0004 *D AO22x1_ASAP7_75t_L
*I *2579:B2 I *L 0.0004 *D AO22x1_ASAP7_75t_L
*I *2572:B2 I *L 0.0004 *D AO22x1_ASAP7_75t_L
*I *2582:B2 I *L 0.0004 *D AO22x1_ASAP7_75t_L
*I *2597:Y O *L 0.0000 *D NOR2xp33_ASAP7_75t_L

*CAP
1 *2575:B2 0
2 *2577:B2 0
3 *2581:B2 0
4 *2571:B2 0
5 *2576:B2 0
6 *2579:B2 0
7 *2572:B2 0
8 *2582:B2 0

*RES
1 *2597:Y *2575:B2 0
2 *2597:Y *2577:B2 0
3 *2597:Y *2581:B2 0
4 *2597:Y *2571:B2 0
5 *2597:Y *2576:B2 0
6 *2597:Y *2579:B2 0
7 *2597:Y *2572:B2 0
8 *2597:Y *2582:B2 0
*END

*D_NET *1059 0.000000

*CONN
*I *2570:B2 I *L 0.0004 *D AO22x1_ASAP7_75t_L
*I *2578:B2 I *L 0.0004 *D AO22x1_ASAP7_75t_L
*I *2583:B2 I *L 0.0004 *D AO22x1_ASAP7_75t_L
*I *2557:B2 I *L 0.0004 *D AO22x1_ASAP7_75t_L
*I *2574:B2 I *L 0.0004 *D AO22x1_ASAP7_75t_L
*I *2580:B2 I *L 0.0004 *D AO22x1_ASAP7_75t_L
*I *2558:B2 I *L 0.0004 *D AO22x1_ASAP7_75t_L
*I *2584:B2 I *L 0.0004 *D AO22x1_ASAP7_75t_L
*I *2596:Y O *L 0.0000 *D NOR2xp33_ASAP7_75t_L

*CAP
1 *2570:B2 0
2 *2578:B2 0
3 *2583:B2 0
4 *2557:B2 0
5 *2574:B2 0
6 *2580:B2 0
7 *2558:B2 0
8 *2584:B2 0

*RES
1 *2596:Y *2570:B2 0
2 *2596:Y *2578:B2 0
3 *2596:Y *2583:B2 0
4 *2596:Y *2557:B2 0
5 *2596:Y *2574:B2 0
6 *2596:Y *2580:B2 0
7 *2596:Y *2558:B2 0
8 *2596:Y *2584:B2 0
*END

*D_NET *1060 0.000000

*CONN
*I *2550:B I *L 0.0005 *D NAND2xp5_ASAP7_75t_L
*I *2551:B I *L 0.0005 *D NAND2xp5_ASAP7_75t_L
*I *2552:A I *L 0.0006 *D INVx1_ASAP7_75t_L
*I *2553:Y O *L 0.0000 *D NOR2xp33_ASAP7_75t_L

*CAP
1 *2550:B 0
2 *2551:B 0
3 *2552:A 0

*RES
1 *2553:Y *2550:B 0
2 *2553:Y *2551:B 0
3 *2553:Y *2552:A 0
*END

*D_NET *1061 0.000000

*CONN
*I *2547:B I *L 0.0005 *D NAND2xp5_ASAP7_75t_L
*I *2549:Y O *L 0.0000 *D INVx1_ASAP7_75t_L

*CAP
1 *2547:B 0

*RES
1 *2549:Y *2547:B 0
*END

*D_NET *1062 0.000000

*CONN
*I *2538:A I *L 0.0006 *D INVx1_ASAP7_75t_L
*I *2535:B1 I *L 0.0004 *D AOI22xp33_ASAP7_75t_L
*I *2110:read I *L 0.0003 *D srambank_256x4x32_6t122
*I *2106:read I *L 0.0003 *D srambank_256x4x32_6t122
*I *2104:read I *L 0.0003 *D srambank_256x4x32_6t122
*I *2101:read I *L 0.0003 *D srambank_256x4x32_6t122
*I *2108:read I *L 0.0003 *D srambank_256x4x32_6t122
*I *2109:read I *L 0.0003 *D srambank_256x4x32_6t122
*I *2111:read I *L 0.0003 *D srambank_256x4x32_6t122
*I *2112:read I *L 0.0003 *D srambank_256x4x32_6t122
*I *2539:A I *L 0.0003 *D HB1xp67_ASAP7_75t_L
*I *2485:A I *L 0.0003 *D NOR2xp33_ASAP7_75t_L
*I *2540:Y O *L 0.0000 *D INVx1_ASAP7_75t_L

*CAP
1 *2538:A 0
2 *2535:B1 0
3 *2110:read 0
4 *2106:read 0
5 *2104:read 0
6 *2101:read 0
7 *2108:read 0
8 *2109:read 0
9 *2111:read 0
10 *2112:read 0
11 *2539:A 0
12 *2485:A 0

*RES
1 *2540:Y *2538:A 0
2 *2540:Y *2535:B1 0
3 *2540:Y *2110:read 0
4 *2540:Y *2106:read 0
5 *2540:Y *2104:read 0
6 *2540:Y *2101:read 0
7 *2540:Y *2108:read 0
8 *2540:Y *2109:read 0
9 *2540:Y *2111:read 0
10 *2540:Y *2112:read 0
11 *2540:Y *2539:A 0
12 *2540:Y *2485:A 0
*END

*D_NET *1063 0.000000

*CONN
*I *3264:A I *L 0.0003 *D NAND2xp33_ASAP7_75t_L
*I *2804:B2 I *L 0.0004 *D OAI22xp33_ASAP7_75t_L
*I *2546:A2 I *L 0.0006 *D OAI21xp5_ASAP7_75t_L
*I *2540:A I *L 0.0006 *D INVx1_ASAP7_75t_L
*I *2551:Y O *L 0.0000 *D NAND2xp5_ASAP7_75t_L

*CAP
1 *3264:A 0
2 *2804:B2 0
3 *2546:A2 0
4 *2540:A 0

*RES
1 *2551:Y *3264:A 0
2 *2551:Y *2804:B2 0
3 *2551:Y *2546:A2 0
4 *2551:Y *2540:A 0
*END

*D_NET *1064 0.000000

*CONN
*I *3201:B I *L 0.0005 *D NAND2xp5_ASAP7_75t_L
*I *2854:A1 I *L 0.0005 *D O2A1O1Ixp33_ASAP7_75t_R
*I *3269:B I *L 0.0004 *D NOR2xp33_ASAP7_75t_L
*I *2599:B I *L 0.0004 *D NOR2xp33_ASAP7_75t_L
*I *2597:B I *L 0.0004 *D NOR2xp33_ASAP7_75t_L
*I *2598:B I *L 0.0004 *D NOR2xp33_ASAP7_75t_L
*I *2596:B I *L 0.0004 *D NOR2xp33_ASAP7_75t_L
*I *2602:B I *L 0.0004 *D NOR2xp33_ASAP7_75t_L
*I *2601:B I *L 0.0004 *D NOR2xp33_ASAP7_75t_L
*I *2603:B I *L 0.0004 *D NOR2xp33_ASAP7_75t_L
*I *2600:B I *L 0.0004 *D NOR2xp33_ASAP7_75t_L
*I *2546:B I *L 0.0006 *D OAI21xp5_ASAP7_75t_L
*I *2541:A I *L 0.0006 *D INVx1_ASAP7_75t_L
*I *2548:Y O *L 0.0000 *D OR2x2_ASAP7_75t_L

*CAP
1 *3201:B 0
2 *2854:A1 0
3 *3269:B 0
4 *2599:B 0
5 *2597:B 0
6 *2598:B 0
7 *2596:B 0
8 *2602:B 0
9 *2601:B 0
10 *2603:B 0
11 *2600:B 0
12 *2546:B 0
13 *2541:A 0

*RES
1 *2548:Y *3201:B 0
2 *2548:Y *2854:A1 0
3 *2548:Y *3269:B 0
4 *2548:Y *2599:B 0
5 *2548:Y *2597:B 0
6 *2548:Y *2598:B 0
7 *2548:Y *2596:B 0
8 *2548:Y *2602:B 0
9 *2548:Y *2601:B 0
10 *2548:Y *2603:B 0
11 *2548:Y *2600:B 0
12 *2548:Y *2546:B 0
13 *2548:Y *2541:A 0
*END

*D_NET *1065 0.000000

*CONN
*I *3264:B I *L 0.0004 *D NAND2xp33_ASAP7_75t_L
*I *2549:A I *L 0.0006 *D INVx1_ASAP7_75t_L
*I *2548:B I *L 0.0005 *D OR2x2_ASAP7_75t_L
*I *2550:Y O *L 0.0000 *D NAND2xp5_ASAP7_75t_L

*CAP
1 *3264:B 0
2 *2549:A 0
3 *2548:B 0

*RES
1 *2550:Y *3264:B 0
2 *2550:Y *2549:A 0
3 *2550:Y *2548:B 0
*END

*D_NET *1066 0.000000

*CONN
*I *3235:A I *L 0.0005 *D NOR3xp33_ASAP7_75t_L
*I *2552:Y O *L 0.0000 *D INVx1_ASAP7_75t_L

*CAP
1 *3235:A 0

*RES
1 *2552:Y *3235:A 0
*END

*D_NET *1067 0.000000

*CONN
*I *2589:B2 I *L 0.0004 *D AO22x1_ASAP7_75t_L
*I *2591:B2 I *L 0.0004 *D AO22x1_ASAP7_75t_L
*I *2592:B2 I *L 0.0004 *D AO22x1_ASAP7_75t_L
*I *2588:B2 I *L 0.0004 *D AO22x1_ASAP7_75t_L
*I *2587:B2 I *L 0.0004 *D AO22x1_ASAP7_75t_L
*I *2595:B2 I *L 0.0004 *D AO22x1_ASAP7_75t_L
*I *2590:B2 I *L 0.0004 *D AO22x1_ASAP7_75t_L
*I *2593:B2 I *L 0.0004 *D AO22x1_ASAP7_75t_L
*I *2594:B2 I *L 0.0004 *D AO22x1_ASAP7_75t_L
*I *2586:B2 I *L 0.0004 *D AO22x1_ASAP7_75t_L
*I *2542:A2 I *L 0.0004 *D AO22x1_ASAP7_75t_L
*I *2543:A2 I *L 0.0004 *D AO22x1_ASAP7_75t_L
*I *2544:A2 I *L 0.0004 *D AO22x1_ASAP7_75t_L
*I *2545:A2 I *L 0.0004 *D AO22x1_ASAP7_75t_L
*I *2546:Y O *L 0.0000 *D OAI21xp5_ASAP7_75t_L

*CAP
1 *2589:B2 0
2 *2591:B2 0
3 *2592:B2 0
4 *2588:B2 0
5 *2587:B2 0
6 *2595:B2 0
7 *2590:B2 0
8 *2593:B2 0
9 *2594:B2 0
10 *2586:B2 0
11 *2542:A2 0
12 *2543:A2 0
13 *2544:A2 0
14 *2545:A2 0

*RES
1 *2546:Y *2589:B2 0
2 *2546:Y *2591:B2 0
3 *2546:Y *2592:B2 0
4 *2546:Y *2588:B2 0
5 *2546:Y *2587:B2 0
6 *2546:Y *2595:B2 0
7 *2546:Y *2590:B2 0
8 *2546:Y *2593:B2 0
9 *2546:Y *2594:B2 0
10 *2546:Y *2586:B2 0
11 *2546:Y *2542:A2 0
12 *2546:Y *2543:A2 0
13 *2546:Y *2544:A2 0
14 *2546:Y *2545:A2 0
*END

*D_NET *1068 0.000000

*CONN
*I *3172:C I *L 0.0005 *D OAI211xp5_ASAP7_75t_L
*I *2608:A I *L 0.0006 *D INVx1_ASAP7_75t_L
*I *2547:Y O *L 0.0000 *D NAND2xp5_ASAP7_75t_L

*CAP
1 *3172:C 0
2 *2608:A 0

*RES
1 *2547:Y *3172:C 0
2 *2547:Y *2608:A 0
*END

*D_NET *1069 0.000000

*CONN
*I *3304:A I *L 0.0006 *D INVx1_ASAP7_75t_L
*P *48 I

*CAP
1 *3304:A 0

*RES
1 *48 *3304:A 0
*END

*D_NET *1070 0.000000

*CONN
*I *3253:A I *L 0.0005 *D NAND2xp5_ASAP7_75t_L
*P *49 I

*CAP
1 *3253:A 0

*RES
1 *49 *3253:A 0
*END

*D_NET *1071 0.000000

*CONN
*I *3215:B I *L 0.0005 *D NOR5xp2_ASAP7_75t_L
*P *50 I

*CAP
1 *3215:B 0

*RES
1 *50 *3215:B 0
*END

*D_NET *1072 0.000000

*CONN
*I *3215:C I *L 0.0005 *D NOR5xp2_ASAP7_75t_L
*I *3171:C I *L 0.0005 *D NOR3xp33_ASAP7_75t_L
*P *51 I

*CAP
1 *3215:C 0
2 *3171:C 0

*RES
1 *51 *3215:C 0
2 *51 *3171:C 0
*END

*D_NET *1073 0.000000

*CONN
*I *3307:A I *L 0.0006 *D INVx1_ASAP7_75t_L
*P *52 I

*CAP
1 *3307:A 0

*RES
1 *52 *3307:A 0
*END

*D_NET *1074 0.000000

*CONN
*I *3220:C I *L 0.0005 *D NOR5xp2_ASAP7_75t_L
*I *3093:C I *L 0.0005 *D NOR3xp33_ASAP7_75t_L
*P *157 I

*CAP
1 *3220:C 0
2 *3093:C 0

*RES
1 *157 *3220:C 0
2 *157 *3093:C 0
*END

*D_NET *1075 0.000000

*CONN
*I *3306:A I *L 0.0006 *D INVx1_ASAP7_75t_L
*P *158 I

*CAP
1 *3306:A 0

*RES
1 *158 *3306:A 0
*END

*D_NET *1076 0.000000

*CONN
*I *3305:A I *L 0.0006 *D INVx1_ASAP7_75t_L
*P *154 I

*CAP
1 *3305:A 0

*RES
1 *154 *3305:A 0
*END

*D_NET *1077 0.000000

*CONN
*I *3252:A I *L 0.0005 *D NAND2xp5_ASAP7_75t_L
*P *155 I

*CAP
1 *3252:A 0

*RES
1 *155 *3252:A 0
*END

*D_NET *1078 0.000000

*CONN
*I *3220:B I *L 0.0005 *D NOR5xp2_ASAP7_75t_L
*P *156 I

*CAP
1 *3220:B 0

*RES
1 *156 *3220:B 0
*END

*D_NET *1079 0.000000

*CONN
*I *3182:B I *L 0.0005 *D NAND3xp33_ASAP7_75t_L
*P *176 I

*CAP
1 *3182:B 0

*RES
1 *176 *3182:B 0
*END

*D_NET *1080 0.000000

*CONN
*I *3180:B I *L 0.0005 *D NAND3xp33_ASAP7_75t_L
*P *108 I

*CAP
1 *3180:B 0

*RES
1 *108 *3180:B 0
*END

*D_NET *1081 0.000000

*CONN
*I *3059:B I *L 0.0004 *D NOR2xp33_ASAP7_75t_L
*I *3004:B I *L 0.0010 *D XOR2xp5_ASAP7_75t_L
*P *106 I

*CAP
1 *3059:B 0
2 *3004:B 0

*RES
1 *106 *3059:B 0
2 *106 *3004:B 0
*END

*D_NET *1082 0.000000

*CONN
*I *3267:B I *L 0.0005 *D NAND2xp5_ASAP7_75t_L
*P *107 I

*CAP
1 *3267:B 0

*RES
1 *107 *3267:B 0
*END

*D_NET *1083 0.000000

*CONN
*I *3174:A I *L 0.0005 *D NAND2xp5_ASAP7_75t_L
*I *3011:A2 I *L 0.0006 *D O2A1O1Ixp33_ASAP7_75t_L
*P *175 I

*CAP
1 *3174:A 0
2 *3011:A2 0

*RES
1 *175 *3174:A 0
2 *175 *3011:A2 0
*END

*D_NET *1084 0.000000

*CONN
*I *3259:B I *L 0.0005 *D NAND2xp5_ASAP7_75t_L
*P *69 I

*CAP
1 *3259:B 0

*RES
1 *69 *3259:B 0
*END

*D_NET *1085 0.000000

*CONN
*I *2716:CLK I *L 0.0005 *D DFFHQNx1_ASAP7_75t_L
*I *2723:CLK I *L 0.0005 *D DFFHQNx1_ASAP7_75t_L
*I *2722:CLK I *L 0.0005 *D DFFHQNx1_ASAP7_75t_L
*I *2721:CLK I *L 0.0005 *D DFFHQNx1_ASAP7_75t_L
*I *2720:CLK I *L 0.0005 *D DFFHQNx1_ASAP7_75t_L
*I *2727:CLK I *L 0.0005 *D DFFHQNx1_ASAP7_75t_L
*I *2726:CLK I *L 0.0005 *D DFFHQNx1_ASAP7_75t_L
*I *2725:CLK I *L 0.0005 *D DFFHQNx1_ASAP7_75t_L
*I *2724:CLK I *L 0.0005 *D DFFHQNx1_ASAP7_75t_L
*I *2762:CLK I *L 0.0005 *D DFFHQNx1_ASAP7_75t_L
*I *2647:CLK I *L 0.0005 *D DFFHQNx1_ASAP7_75t_L
*I *2649:CLK I *L 0.0005 *D DFFHQNx1_ASAP7_75t_L
*I *2650:CLK I *L 0.0005 *D DFFHQNx1_ASAP7_75t_L
*I *2651:CLK I *L 0.0005 *D DFFHQNx1_ASAP7_75t_L
*I *2719:CLK I *L 0.0005 *D DFFHQNx1_ASAP7_75t_L
*I *2648:CLK I *L 0.0005 *D DFFHQNx1_ASAP7_75t_L
*I *2751:CLK I *L 0.0005 *D DFFHQNx1_ASAP7_75t_L
*I *2757:CLK I *L 0.0005 *D DFFHQNx1_ASAP7_75t_L
*I *2753:CLK I *L 0.0005 *D DFFHQNx1_ASAP7_75t_L
*I *2763:CLK I *L 0.0005 *D DFFHQNx1_ASAP7_75t_L
*I *2761:CLK I *L 0.0005 *D DFFHQNx1_ASAP7_75t_L
*I *2760:CLK I *L 0.0005 *D DFFHQNx1_ASAP7_75t_L
*I *2759:CLK I *L 0.0005 *D DFFHQNx1_ASAP7_75t_L
*I *2756:CLK I *L 0.0005 *D DFFHQNx1_ASAP7_75t_L
*I *2755:CLK I *L 0.0005 *D DFFHQNx1_ASAP7_75t_L
*I *2754:CLK I *L 0.0005 *D DFFHQNx1_ASAP7_75t_L
*I *2752:CLK I *L 0.0005 *D DFFHQNx1_ASAP7_75t_L
*I *2749:CLK I *L 0.0005 *D DFFHQNx1_ASAP7_75t_L
*I *2747:CLK I *L 0.0005 *D DFFHQNx1_ASAP7_75t_L
*I *2746:CLK I *L 0.0005 *D DFFHQNx1_ASAP7_75t_L
*I *2744:CLK I *L 0.0005 *D DFFHQNx1_ASAP7_75t_L
*I *2743:CLK I *L 0.0005 *D DFFHQNx1_ASAP7_75t_L
*I *2742:CLK I *L 0.0005 *D DFFHQNx1_ASAP7_75t_L
*I *2741:CLK I *L 0.0005 *D DFFHQNx1_ASAP7_75t_L
*I *2740:CLK I *L 0.0005 *D DFFHQNx1_ASAP7_75t_L
*I *2739:CLK I *L 0.0005 *D DFFHQNx1_ASAP7_75t_L
*I *2737:CLK I *L 0.0005 *D DFFHQNx1_ASAP7_75t_L
*I *2736:CLK I *L 0.0005 *D DFFHQNx1_ASAP7_75t_L
*I *2735:CLK I *L 0.0005 *D DFFHQNx1_ASAP7_75t_L
*I *2748:CLK I *L 0.0005 *D DFFHQNx1_ASAP7_75t_L
*I *2734:CLK I *L 0.0005 *D DFFHQNx1_ASAP7_75t_L
*I *2733:CLK I *L 0.0005 *D DFFHQNx1_ASAP7_75t_L
*I *2732:CLK I *L 0.0005 *D DFFHQNx1_ASAP7_75t_L
*I *2731:CLK I *L 0.0005 *D DFFHQNx1_ASAP7_75t_L
*I *2730:CLK I *L 0.0005 *D DFFHQNx1_ASAP7_75t_L
*I *2729:CLK I *L 0.0005 *D DFFHQNx1_ASAP7_75t_L
*I *2728:CLK I *L 0.0005 *D DFFHQNx1_ASAP7_75t_L
*I *2738:CLK I *L 0.0005 *D DFFHQNx1_ASAP7_75t_L
*I *2750:CLK I *L 0.0005 *D DFFHQNx1_ASAP7_75t_L
*I *2758:CLK I *L 0.0005 *D DFFHQNx1_ASAP7_75t_L
*I *2745:CLK I *L 0.0005 *D DFFHQNx1_ASAP7_75t_L
*I *2643:CLK I *L 0.0005 *D DFFHQNx1_ASAP7_75t_L
*I *2642:CLK I *L 0.0005 *D DFFHQNx1_ASAP7_75t_L
*I *2641:CLK I *L 0.0005 *D DFFHQNx1_ASAP7_75t_L
*I *2639:CLK I *L 0.0005 *D DFFHQNx1_ASAP7_75t_L
*I *2645:CLK I *L 0.0005 *D DFFHQNx1_ASAP7_75t_L
*I *2640:CLK I *L 0.0005 *D DFFHQNx1_ASAP7_75t_L
*I *2644:CLK I *L 0.0005 *D DFFHQNx1_ASAP7_75t_L
*I *2631:CLK I *L 0.0005 *D DFFHQNx1_ASAP7_75t_L
*I *2638:CLK I *L 0.0005 *D DFFHQNx1_ASAP7_75t_L
*I *2637:CLK I *L 0.0005 *D DFFHQNx1_ASAP7_75t_L
*I *2636:CLK I *L 0.0005 *D DFFHQNx1_ASAP7_75t_L
*I *2635:CLK I *L 0.0005 *D DFFHQNx1_ASAP7_75t_L
*I *2633:CLK I *L 0.0005 *D DFFHQNx1_ASAP7_75t_L
*I *2634:CLK I *L 0.0005 *D DFFHQNx1_ASAP7_75t_L
*I *2632:CLK I *L 0.0005 *D DFFHQNx1_ASAP7_75t_L
*I *2623:CLK I *L 0.0005 *D DFFHQNx1_ASAP7_75t_L
*I *2627:CLK I *L 0.0005 *D DFFHQNx1_ASAP7_75t_L
*I *2626:CLK I *L 0.0005 *D DFFHQNx1_ASAP7_75t_L
*I *2624:CLK I *L 0.0005 *D DFFHQNx1_ASAP7_75t_L
*I *2625:CLK I *L 0.0005 *D DFFHQNx1_ASAP7_75t_L
*I *2646:CLK I *L 0.0005 *D DFFHQNx1_ASAP7_75t_L
*I *2718:CLK I *L 0.0005 *D DFFHQNx1_ASAP7_75t_L
*I *2688:CLK I *L 0.0005 *D DFFHQNx1_ASAP7_75t_L
*I *2628:CLK I *L 0.0005 *D DFFHQNx1_ASAP7_75t_L
*I *2609:CLK I *L 0.0005 *D DFFHQNx1_ASAP7_75t_L
*I *2610:CLK I *L 0.0005 *D DFFHQNx1_ASAP7_75t_L
*I *2681:CLK I *L 0.0005 *D DFFHQNx1_ASAP7_75t_L
*I *2680:CLK I *L 0.0005 *D DFFHQNx1_ASAP7_75t_L
*I *2685:CLK I *L 0.0005 *D DFFHQNx1_ASAP7_75t_L
*I *2687:CLK I *L 0.0005 *D DFFHQNx1_ASAP7_75t_L
*I *2683:CLK I *L 0.0005 *D DFFHQNx1_ASAP7_75t_L
*I *2684:CLK I *L 0.0005 *D DFFHQNx1_ASAP7_75t_L
*I *2611:CLK I *L 0.0005 *D DFFHQNx1_ASAP7_75t_L
*I *2613:CLK I *L 0.0005 *D DFFHQNx1_ASAP7_75t_L
*I *2612:CLK I *L 0.0005 *D DFFHQNx1_ASAP7_75t_L
*I *2677:CLK I *L 0.0005 *D DFFHQNx1_ASAP7_75t_L
*I *2676:CLK I *L 0.0005 *D DFFHQNx1_ASAP7_75t_L
*I *2675:CLK I *L 0.0005 *D DFFHQNx1_ASAP7_75t_L
*I *2674:CLK I *L 0.0005 *D DFFHQNx1_ASAP7_75t_L
*I *2673:CLK I *L 0.0005 *D DFFHQNx1_ASAP7_75t_L
*I *2672:CLK I *L 0.0005 *D DFFHQNx1_ASAP7_75t_L
*I *2671:CLK I *L 0.0005 *D DFFHQNx1_ASAP7_75t_L
*I *2670:CLK I *L 0.0005 *D DFFHQNx1_ASAP7_75t_L
*I *2669:CLK I *L 0.0005 *D DFFHQNx1_ASAP7_75t_L
*I *2668:CLK I *L 0.0005 *D DFFHQNx1_ASAP7_75t_L
*I *2667:CLK I *L 0.0005 *D DFFHQNx1_ASAP7_75t_L
*I *2666:CLK I *L 0.0005 *D DFFHQNx1_ASAP7_75t_L
*I *2665:CLK I *L 0.0005 *D DFFHQNx1_ASAP7_75t_L
*I *2664:CLK I *L 0.0005 *D DFFHQNx1_ASAP7_75t_L
*I *2663:CLK I *L 0.0005 *D DFFHQNx1_ASAP7_75t_L
*I *2662:CLK I *L 0.0005 *D DFFHQNx1_ASAP7_75t_L
*I *2661:CLK I *L 0.0005 *D DFFHQNx1_ASAP7_75t_L
*I *2660:CLK I *L 0.0005 *D DFFHQNx1_ASAP7_75t_L
*I *2659:CLK I *L 0.0005 *D DFFHQNx1_ASAP7_75t_L
*I *2658:CLK I *L 0.0005 *D DFFHQNx1_ASAP7_75t_L
*I *2657:CLK I *L 0.0005 *D DFFHQNx1_ASAP7_75t_L
*I *2656:CLK I *L 0.0005 *D DFFHQNx1_ASAP7_75t_L
*I *2655:CLK I *L 0.0005 *D DFFHQNx1_ASAP7_75t_L
*I *2654:CLK I *L 0.0005 *D DFFHQNx1_ASAP7_75t_L
*I *2678:CLK I *L 0.0005 *D DFFHQNx1_ASAP7_75t_L
*I *2679:CLK I *L 0.0005 *D DFFHQNx1_ASAP7_75t_L
*I *2682:CLK I *L 0.0005 *D DFFHQNx1_ASAP7_75t_L
*I *2614:CLK I *L 0.0005 *D DFFHQNx1_ASAP7_75t_L
*I *2629:CLK I *L 0.0005 *D DFFHQNx1_ASAP7_75t_L
*I *2630:CLK I *L 0.0005 *D DFFHQNx1_ASAP7_75t_L
*I *2615:CLK I *L 0.0005 *D DFFHQNx1_ASAP7_75t_L
*I *2717:CLK I *L 0.0005 *D DFFHQNx1_ASAP7_75t_L
*I *2708:CLK I *L 0.0005 *D DFFHQNx1_ASAP7_75t_L
*I *2714:CLK I *L 0.0005 *D DFFHQNx1_ASAP7_75t_L
*I *2713:CLK I *L 0.0005 *D DFFHQNx1_ASAP7_75t_L
*I *2712:CLK I *L 0.0005 *D DFFHQNx1_ASAP7_75t_L
*I *2709:CLK I *L 0.0005 *D DFFHQNx1_ASAP7_75t_L
*I *2711:CLK I *L 0.0005 *D DFFHQNx1_ASAP7_75t_L
*I *2710:CLK I *L 0.0005 *D DFFHQNx1_ASAP7_75t_L
*I *2616:CLK I *L 0.0005 *D DFFHQNx1_ASAP7_75t_L
*I *2715:CLK I *L 0.0005 *D DFFHQNx1_ASAP7_75t_L
*I *2689:CLK I *L 0.0005 *D DFFHQNx1_ASAP7_75t_L
*I *2652:CLK I *L 0.0005 *D DFFHQNx1_ASAP7_75t_L
*I *2695:CLK I *L 0.0005 *D DFFHQNx1_ASAP7_75t_L
*I *2694:CLK I *L 0.0005 *D DFFHQNx1_ASAP7_75t_L
*I *2617:CLK I *L 0.0005 *D DFFHQNx1_ASAP7_75t_L
*I *2698:CLK I *L 0.0005 *D DFFHQNx1_ASAP7_75t_L
*I *2702:CLK I *L 0.0005 *D DFFHQNx1_ASAP7_75t_L
*I *2701:CLK I *L 0.0005 *D DFFHQNx1_ASAP7_75t_L
*I *2700:CLK I *L 0.0005 *D DFFHQNx1_ASAP7_75t_L
*I *2699:CLK I *L 0.0005 *D DFFHQNx1_ASAP7_75t_L
*I *2697:CLK I *L 0.0005 *D DFFHQNx1_ASAP7_75t_L
*I *2696:CLK I *L 0.0005 *D DFFHQNx1_ASAP7_75t_L
*I *2653:CLK I *L 0.0005 *D DFFHQNx1_ASAP7_75t_L
*I *2693:CLK I *L 0.0005 *D DFFHQNx1_ASAP7_75t_L
*I *2690:CLK I *L 0.0005 *D DFFHQNx1_ASAP7_75t_L
*I *2691:CLK I *L 0.0005 *D DFFHQNx1_ASAP7_75t_L
*I *2618:CLK I *L 0.0005 *D DFFHQNx1_ASAP7_75t_L
*I *2703:CLK I *L 0.0005 *D DFFHQNx1_ASAP7_75t_L
*I *2692:CLK I *L 0.0005 *D DFFHQNx1_ASAP7_75t_L
*I *2704:CLK I *L 0.0005 *D DFFHQNx1_ASAP7_75t_L
*I *2619:CLK I *L 0.0005 *D DFFHQNx1_ASAP7_75t_L
*I *2686:CLK I *L 0.0005 *D DFFHQNx1_ASAP7_75t_L
*I *2705:CLK I *L 0.0005 *D DFFHQNx1_ASAP7_75t_L
*I *2620:CLK I *L 0.0005 *D DFFHQNx1_ASAP7_75t_L
*I *2706:CLK I *L 0.0005 *D DFFHQNx1_ASAP7_75t_L
*I *2621:CLK I *L 0.0005 *D DFFHQNx1_ASAP7_75t_L
*I *2622:CLK I *L 0.0005 *D DFFHQNx1_ASAP7_75t_L
*I *2707:CLK I *L 0.0005 *D DFFHQNx1_ASAP7_75t_L
*I *2531:CLK I *L 0.0005 *D DFFHQNx1_ASAP7_75t_L
*I *2530:CLK I *L 0.0005 *D DFFHQNx1_ASAP7_75t_L
*I *2532:CLK I *L 0.0005 *D DFFHQNx1_ASAP7_75t_L
*I *2533:CLK I *L 0.0005 *D DFFHQNx1_ASAP7_75t_L
*I *2097:clk I *L 0.0057 *D srambank_256x4x32_6t122
*I *2098:clk I *L 0.0057 *D srambank_256x4x32_6t122
*I *2099:clk I *L 0.0057 *D srambank_256x4x32_6t122
*I *2100:clk I *L 0.0057 *D srambank_256x4x32_6t122
*I *2101:clk I *L 0.0057 *D srambank_256x4x32_6t122
*I *2102:clk I *L 0.0057 *D srambank_256x4x32_6t122
*I *2103:clk I *L 0.0057 *D srambank_256x4x32_6t122
*I *2104:clk I *L 0.0057 *D srambank_256x4x32_6t122
*I *2105:clk I *L 0.0057 *D srambank_256x4x32_6t122
*I *2106:clk I *L 0.0057 *D srambank_256x4x32_6t122
*I *2107:clk I *L 0.0057 *D srambank_256x4x32_6t122
*I *2108:clk I *L 0.0057 *D srambank_256x4x32_6t122
*I *2109:clk I *L 0.0057 *D srambank_256x4x32_6t122
*I *2110:clk I *L 0.0057 *D srambank_256x4x32_6t122
*I *2111:clk I *L 0.0057 *D srambank_256x4x32_6t122
*I *2112:clk I *L 0.0057 *D srambank_256x4x32_6t122
*P *1 I

*CAP
1 *2716:CLK 0
2 *2723:CLK 0
3 *2722:CLK 0
4 *2721:CLK 0
5 *2720:CLK 0
6 *2727:CLK 0
7 *2726:CLK 0
8 *2725:CLK 0
9 *2724:CLK 0
10 *2762:CLK 0
11 *2647:CLK 0
12 *2649:CLK 0
13 *2650:CLK 0
14 *2651:CLK 0
15 *2719:CLK 0
16 *2648:CLK 0
17 *2751:CLK 0
18 *2757:CLK 0
19 *2753:CLK 0
20 *2763:CLK 0
21 *2761:CLK 0
22 *2760:CLK 0
23 *2759:CLK 0
24 *2756:CLK 0
25 *2755:CLK 0
26 *2754:CLK 0
27 *2752:CLK 0
28 *2749:CLK 0
29 *2747:CLK 0
30 *2746:CLK 0
31 *2744:CLK 0
32 *2743:CLK 0
33 *2742:CLK 0
34 *2741:CLK 0
35 *2740:CLK 0
36 *2739:CLK 0
37 *2737:CLK 0
38 *2736:CLK 0
39 *2735:CLK 0
40 *2748:CLK 0
41 *2734:CLK 0
42 *2733:CLK 0
43 *2732:CLK 0
44 *2731:CLK 0
45 *2730:CLK 0
46 *2729:CLK 0
47 *2728:CLK 0
48 *2738:CLK 0
49 *2750:CLK 0
50 *2758:CLK 0
51 *2745:CLK 0
52 *2643:CLK 0
53 *2642:CLK 0
54 *2641:CLK 0
55 *2639:CLK 0
56 *2645:CLK 0
57 *2640:CLK 0
58 *2644:CLK 0
59 *2631:CLK 0
60 *2638:CLK 0
61 *2637:CLK 0
62 *2636:CLK 0
63 *2635:CLK 0
64 *2633:CLK 0
65 *2634:CLK 0
66 *2632:CLK 0
67 *2623:CLK 0
68 *2627:CLK 0
69 *2626:CLK 0
70 *2624:CLK 0
71 *2625:CLK 0
72 *2646:CLK 0
73 *2718:CLK 0
74 *2688:CLK 0
75 *2628:CLK 0
76 *2609:CLK 0
77 *2610:CLK 0
78 *2681:CLK 0
79 *2680:CLK 0
80 *2685:CLK 0
81 *2687:CLK 0
82 *2683:CLK 0
83 *2684:CLK 0
84 *2611:CLK 0
85 *2613:CLK 0
86 *2612:CLK 0
87 *2677:CLK 0
88 *2676:CLK 0
89 *2675:CLK 0
90 *2674:CLK 0
91 *2673:CLK 0
92 *2672:CLK 0
93 *2671:CLK 0
94 *2670:CLK 0
95 *2669:CLK 0
96 *2668:CLK 0
97 *2667:CLK 0
98 *2666:CLK 0
99 *2665:CLK 0
100 *2664:CLK 0
101 *2663:CLK 0
102 *2662:CLK 0
103 *2661:CLK 0
104 *2660:CLK 0
105 *2659:CLK 0
106 *2658:CLK 0
107 *2657:CLK 0
108 *2656:CLK 0
109 *2655:CLK 0
110 *2654:CLK 0
111 *2678:CLK 0
112 *2679:CLK 0
113 *2682:CLK 0
114 *2614:CLK 0
115 *2629:CLK 0
116 *2630:CLK 0
117 *2615:CLK 0
118 *2717:CLK 0
119 *2708:CLK 0
120 *2714:CLK 0
121 *2713:CLK 0
122 *2712:CLK 0
123 *2709:CLK 0
124 *2711:CLK 0
125 *2710:CLK 0
126 *2616:CLK 0
127 *2715:CLK 0
128 *2689:CLK 0
129 *2652:CLK 0
130 *2695:CLK 0
131 *2694:CLK 0
132 *2617:CLK 0
133 *2698:CLK 0
134 *2702:CLK 0
135 *2701:CLK 0
136 *2700:CLK 0
137 *2699:CLK 0
138 *2697:CLK 0
139 *2696:CLK 0
140 *2653:CLK 0
141 *2693:CLK 0
142 *2690:CLK 0
143 *2691:CLK 0
144 *2618:CLK 0
145 *2703:CLK 0
146 *2692:CLK 0
147 *2704:CLK 0
148 *2619:CLK 0
149 *2686:CLK 0
150 *2705:CLK 0
151 *2620:CLK 0
152 *2706:CLK 0
153 *2621:CLK 0
154 *2622:CLK 0
155 *2707:CLK 0
156 *2531:CLK 0
157 *2530:CLK 0
158 *2532:CLK 0
159 *2533:CLK 0
160 *2097:clk 0
161 *2098:clk 0
162 *2099:clk 0
163 *2100:clk 0
164 *2101:clk 0
165 *2102:clk 0
166 *2103:clk 0
167 *2104:clk 0
168 *2105:clk 0
169 *2106:clk 0
170 *2107:clk 0
171 *2108:clk 0
172 *2109:clk 0
173 *2110:clk 0
174 *2111:clk 0
175 *2112:clk 0

*RES
1 *1 *2716:CLK 0
2 *1 *2723:CLK 0
3 *1 *2722:CLK 0
4 *1 *2721:CLK 0
5 *1 *2720:CLK 0
6 *1 *2727:CLK 0
7 *1 *2726:CLK 0
8 *1 *2725:CLK 0
9 *1 *2724:CLK 0
10 *1 *2762:CLK 0
11 *1 *2647:CLK 0
12 *1 *2649:CLK 0
13 *1 *2650:CLK 0
14 *1 *2651:CLK 0
15 *1 *2719:CLK 0
16 *1 *2648:CLK 0
17 *1 *2751:CLK 0
18 *1 *2757:CLK 0
19 *1 *2753:CLK 0
20 *1 *2763:CLK 0
21 *1 *2761:CLK 0
22 *1 *2760:CLK 0
23 *1 *2759:CLK 0
24 *1 *2756:CLK 0
25 *1 *2755:CLK 0
26 *1 *2754:CLK 0
27 *1 *2752:CLK 0
28 *1 *2749:CLK 0
29 *1 *2747:CLK 0
30 *1 *2746:CLK 0
31 *1 *2744:CLK 0
32 *1 *2743:CLK 0
33 *1 *2742:CLK 0
34 *1 *2741:CLK 0
35 *1 *2740:CLK 0
36 *1 *2739:CLK 0
37 *1 *2737:CLK 0
38 *1 *2736:CLK 0
39 *1 *2735:CLK 0
40 *1 *2748:CLK 0
41 *1 *2734:CLK 0
42 *1 *2733:CLK 0
43 *1 *2732:CLK 0
44 *1 *2731:CLK 0
45 *1 *2730:CLK 0
46 *1 *2729:CLK 0
47 *1 *2728:CLK 0
48 *1 *2738:CLK 0
49 *1 *2750:CLK 0
50 *1 *2758:CLK 0
51 *1 *2745:CLK 0
52 *1 *2643:CLK 0
53 *1 *2642:CLK 0
54 *1 *2641:CLK 0
55 *1 *2639:CLK 0
56 *1 *2645:CLK 0
57 *1 *2640:CLK 0
58 *1 *2644:CLK 0
59 *1 *2631:CLK 0
60 *1 *2638:CLK 0
61 *1 *2637:CLK 0
62 *1 *2636:CLK 0
63 *1 *2635:CLK 0
64 *1 *2633:CLK 0
65 *1 *2634:CLK 0
66 *1 *2632:CLK 0
67 *1 *2623:CLK 0
68 *1 *2627:CLK 0
69 *1 *2626:CLK 0
70 *1 *2624:CLK 0
71 *1 *2625:CLK 0
72 *1 *2646:CLK 0
73 *1 *2718:CLK 0
74 *1 *2688:CLK 0
75 *1 *2628:CLK 0
76 *1 *2609:CLK 0
77 *1 *2610:CLK 0
78 *1 *2681:CLK 0
79 *1 *2680:CLK 0
80 *1 *2685:CLK 0
81 *1 *2687:CLK 0
82 *1 *2683:CLK 0
83 *1 *2684:CLK 0
84 *1 *2611:CLK 0
85 *1 *2613:CLK 0
86 *1 *2612:CLK 0
87 *1 *2677:CLK 0
88 *1 *2676:CLK 0
89 *1 *2675:CLK 0
90 *1 *2674:CLK 0
91 *1 *2673:CLK 0
92 *1 *2672:CLK 0
93 *1 *2671:CLK 0
94 *1 *2670:CLK 0
95 *1 *2669:CLK 0
96 *1 *2668:CLK 0
97 *1 *2667:CLK 0
98 *1 *2666:CLK 0
99 *1 *2665:CLK 0
100 *1 *2664:CLK 0
101 *1 *2663:CLK 0
102 *1 *2662:CLK 0
103 *1 *2661:CLK 0
104 *1 *2660:CLK 0
105 *1 *2659:CLK 0
106 *1 *2658:CLK 0
107 *1 *2657:CLK 0
108 *1 *2656:CLK 0
109 *1 *2655:CLK 0
110 *1 *2654:CLK 0
111 *1 *2678:CLK 0
112 *1 *2679:CLK 0
113 *1 *2682:CLK 0
114 *1 *2614:CLK 0
115 *1 *2629:CLK 0
116 *1 *2630:CLK 0
117 *1 *2615:CLK 0
118 *1 *2717:CLK 0
119 *1 *2708:CLK 0
120 *1 *2714:CLK 0
121 *1 *2713:CLK 0
122 *1 *2712:CLK 0
123 *1 *2709:CLK 0
124 *1 *2711:CLK 0
125 *1 *2710:CLK 0
126 *1 *2616:CLK 0
127 *1 *2715:CLK 0
128 *1 *2689:CLK 0
129 *1 *2652:CLK 0
130 *1 *2695:CLK 0
131 *1 *2694:CLK 0
132 *1 *2617:CLK 0
133 *1 *2698:CLK 0
134 *1 *2702:CLK 0
135 *1 *2701:CLK 0
136 *1 *2700:CLK 0
137 *1 *2699:CLK 0
138 *1 *2697:CLK 0
139 *1 *2696:CLK 0
140 *1 *2653:CLK 0
141 *1 *2693:CLK 0
142 *1 *2690:CLK 0
143 *1 *2691:CLK 0
144 *1 *2618:CLK 0
145 *1 *2703:CLK 0
146 *1 *2692:CLK 0
147 *1 *2704:CLK 0
148 *1 *2619:CLK 0
149 *1 *2686:CLK 0
150 *1 *2705:CLK 0
151 *1 *2620:CLK 0
152 *1 *2706:CLK 0
153 *1 *2621:CLK 0
154 *1 *2622:CLK 0
155 *1 *2707:CLK 0
156 *1 *2531:CLK 0
157 *1 *2530:CLK 0
158 *1 *2532:CLK 0
159 *1 *2533:CLK 0
160 *1 *2097:clk 0
161 *1 *2098:clk 0
162 *1 *2099:clk 0
163 *1 *2100:clk 0
164 *1 *2101:clk 0
165 *1 *2102:clk 0
166 *1 *2103:clk 0
167 *1 *2104:clk 0
168 *1 *2105:clk 0
169 *1 *2106:clk 0
170 *1 *2107:clk 0
171 *1 *2108:clk 0
172 *1 *2109:clk 0
173 *1 *2110:clk 0
174 *1 *2111:clk 0
175 *1 *2112:clk 0
*END

*D_NET *1086 0.000000

*CONN
*I *3238:A I *L 0.0005 *D NOR4xp25_ASAP7_75t_L
*I *2953:A1 I *L 0.0006 *D A2O1A1Ixp33_ASAP7_75t_L
*P *146 I

*CAP
1 *3238:A 0
2 *2953:A1 0

*RES
1 *146 *3238:A 0
2 *146 *2953:A1 0
*END

*D_NET *1087 0.000000

*CONN
*I *3238:B I *L 0.0005 *D NOR4xp25_ASAP7_75t_L
*I *2952:A1 I *L 0.0006 *D A2O1A1Ixp33_ASAP7_75t_L
*P *147 I

*CAP
1 *3238:B 0
2 *2952:A1 0

*RES
1 *147 *3238:B 0
2 *147 *2952:A1 0
*END

*D_NET *1088 0.000000

*CONN
*I *3238:C I *L 0.0005 *D NOR4xp25_ASAP7_75t_L
*I *2951:A1 I *L 0.0006 *D A2O1A1Ixp33_ASAP7_75t_L
*P *148 I

*CAP
1 *3238:C 0
2 *2951:A1 0

*RES
1 *148 *3238:C 0
2 *148 *2951:A1 0
*END

*D_NET *1089 0.000000

*CONN
*I *3238:D I *L 0.0005 *D NOR4xp25_ASAP7_75t_L
*I *2950:A1 I *L 0.0006 *D A2O1A1Ixp33_ASAP7_75t_L
*P *149 I

*CAP
1 *3238:D 0
2 *2950:A1 0

*RES
1 *149 *3238:D 0
2 *149 *2950:A1 0
*END

*D_NET *1090 0.000000

*CONN
*I *3239:A I *L 0.0005 *D NOR4xp25_ASAP7_75t_L
*I *2949:A1 I *L 0.0006 *D A2O1A1Ixp33_ASAP7_75t_L
*P *150 I

*CAP
1 *3239:A 0
2 *2949:A1 0

*RES
1 *150 *3239:A 0
2 *150 *2949:A1 0
*END

*D_NET *1091 0.000000

*CONN
*I *3239:B I *L 0.0005 *D NOR4xp25_ASAP7_75t_L
*I *2948:A1 I *L 0.0006 *D A2O1A1Ixp33_ASAP7_75t_L
*P *151 I

*CAP
1 *3239:B 0
2 *2948:A1 0

*RES
1 *151 *3239:B 0
2 *151 *2948:A1 0
*END

*D_NET *1092 0.000000

*CONN
*I *3239:C I *L 0.0005 *D NOR4xp25_ASAP7_75t_L
*I *2947:A1 I *L 0.0006 *D A2O1A1Ixp33_ASAP7_75t_L
*P *152 I

*CAP
1 *3239:C 0
2 *2947:A1 0

*RES
1 *152 *3239:C 0
2 *152 *2947:A1 0
*END

*D_NET *1093 0.000000

*CONN
*I *3239:D I *L 0.0005 *D NOR4xp25_ASAP7_75t_L
*I *3024:A I *L 0.0005 *D AND2x2_ASAP7_75t_L
*P *153 I

*CAP
1 *3239:D 0
2 *3024:A 0

*RES
1 *153 *3239:D 0
2 *153 *3024:A 0
*END

*D_NET *1094 0.000000

*CONN
*I *3126:A I *L 0.0005 *D AND2x2_ASAP7_75t_L
*P *40 I

*CAP
1 *3126:A 0

*RES
1 *40 *3126:A 0
*END

*D_NET *1095 0.000000

*CONN
*I *3137:A I *L 0.0005 *D AND2x2_ASAP7_75t_L
*P *41 I

*CAP
1 *3137:A 0

*RES
1 *41 *3137:A 0
*END

*D_NET *1096 0.000000

*CONN
*I *3141:A I *L 0.0005 *D AND2x2_ASAP7_75t_L
*P *42 I

*CAP
1 *3141:A 0

*RES
1 *42 *3141:A 0
*END

*D_NET *1097 0.000000

*CONN
*I *3140:A I *L 0.0005 *D AND2x2_ASAP7_75t_L
*P *43 I

*CAP
1 *3140:A 0

*RES
1 *43 *3140:A 0
*END

*D_NET *1098 0.000000

*CONN
*I *3129:A I *L 0.0005 *D AND2x2_ASAP7_75t_L
*P *44 I

*CAP
1 *3129:A 0

*RES
1 *44 *3129:A 0
*END

*D_NET *1099 0.000000

*CONN
*I *3117:A I *L 0.0005 *D AND2x2_ASAP7_75t_L
*P *45 I

*CAP
1 *3117:A 0

*RES
1 *45 *3117:A 0
*END

*D_NET *1100 0.000000

*CONN
*I *3139:A I *L 0.0005 *D AND2x2_ASAP7_75t_L
*P *46 I

*CAP
1 *3139:A 0

*RES
1 *46 *3139:A 0
*END

*D_NET *1101 0.000000

*CONN
*I *3151:A I *L 0.0005 *D AND2x2_ASAP7_75t_L
*P *47 I

*CAP
1 *3151:A 0

*RES
1 *47 *3151:A 0
*END

*D_NET *1102 0.000000

*CONN
*I *3132:A I *L 0.0005 *D AND2x2_ASAP7_75t_L
*P *3 I

*CAP
1 *3132:A 0

*RES
1 *3 *3132:A 0
*END

*D_NET *1103 0.000000

*CONN
*I *3154:A I *L 0.0005 *D AND2x2_ASAP7_75t_L
*P *4 I

*CAP
1 *3154:A 0

*RES
1 *4 *3154:A 0
*END

*D_NET *1104 0.000000

*CONN
*I *3146:A I *L 0.0005 *D AND2x2_ASAP7_75t_L
*P *5 I

*CAP
1 *3146:A 0

*RES
1 *5 *3146:A 0
*END

*D_NET *1105 0.000000

*CONN
*I *3135:A I *L 0.0005 *D AND2x2_ASAP7_75t_L
*P *6 I

*CAP
1 *3135:A 0

*RES
1 *6 *3135:A 0
*END

*D_NET *1106 0.000000

*CONN
*I *3143:A I *L 0.0005 *D AND2x2_ASAP7_75t_L
*P *7 I

*CAP
1 *3143:A 0

*RES
1 *7 *3143:A 0
*END

*D_NET *1107 0.000000

*CONN
*I *2778:B1 I *L 0.0006 *D AOI22xp5_ASAP7_75t_L
*P *24 I

*CAP
1 *2778:B1 0

*RES
1 *24 *2778:B1 0
*END

*D_NET *1108 0.000000

*CONN
*I *2785:B1 I *L 0.0006 *D AOI22xp5_ASAP7_75t_L
*P *25 I

*CAP
1 *2785:B1 0

*RES
1 *25 *2785:B1 0
*END

*D_NET *1109 0.000000

*CONN
*I *2800:B1 I *L 0.0006 *D AOI22xp5_ASAP7_75t_L
*P *26 I

*CAP
1 *2800:B1 0

*RES
1 *26 *2800:B1 0
*END

*D_NET *1110 0.000000

*CONN
*I *2823:B1 I *L 0.0006 *D AOI22xp5_ASAP7_75t_L
*P *27 I

*CAP
1 *2823:B1 0

*RES
1 *27 *2823:B1 0
*END

*D_NET *1111 0.000000

*CONN
*I *2843:B1 I *L 0.0004 *D AOI22xp33_ASAP7_75t_L
*P *28 I

*CAP
1 *2843:B1 0

*RES
1 *28 *2843:B1 0
*END

*D_NET *1112 0.000000

*CONN
*I *2851:B1 I *L 0.0004 *D AOI22xp33_ASAP7_75t_L
*P *29 I

*CAP
1 *2851:B1 0

*RES
1 *29 *2851:B1 0
*END

*D_NET *1113 0.000000

*CONN
*I *2912:B1 I *L 0.0004 *D AOI22xp33_ASAP7_75t_L
*P *30 I

*CAP
1 *2912:B1 0

*RES
1 *30 *2912:B1 0
*END

*D_NET *1114 0.000000

*CONN
*I *2929:B1 I *L 0.0004 *D AOI22xp33_ASAP7_75t_L
*P *31 I

*CAP
1 *2929:B1 0

*RES
1 *31 *2929:B1 0
*END

*D_NET *1115 0.000000

*CONN
*I *2962:B1 I *L 0.0004 *D AOI22xp33_ASAP7_75t_L
*P *32 I

*CAP
1 *2962:B1 0

*RES
1 *32 *2962:B1 0
*END

*D_NET *1116 0.000000

*CONN
*I *3010:B1 I *L 0.0004 *D AOI22xp33_ASAP7_75t_L
*P *33 I

*CAP
1 *3010:B1 0

*RES
1 *33 *3010:B1 0
*END

*D_NET *1117 0.000000

*CONN
*I *3090:B1 I *L 0.0004 *D AOI22xp33_ASAP7_75t_L
*P *34 I

*CAP
1 *3090:B1 0

*RES
1 *34 *3090:B1 0
*END

*D_NET *1118 0.000000

*CONN
*I *3102:B1 I *L 0.0004 *D AOI22xp33_ASAP7_75t_L
*P *35 I

*CAP
1 *3102:B1 0

*RES
1 *35 *3102:B1 0
*END

*D_NET *1119 0.000000

*CONN
*I *3112:B1 I *L 0.0004 *D AOI22xp33_ASAP7_75t_L
*P *36 I

*CAP
1 *3112:B1 0

*RES
1 *36 *3112:B1 0
*END

*D_NET *1120 0.000000

*CONN
*I *3196:A I *L 0.0005 *D NAND2xp5_ASAP7_75t_L
*P *37 I

*CAP
1 *3196:A 0

*RES
1 *37 *3196:A 0
*END

*D_NET *1121 0.000000

*CONN
*I *3215:D I *L 0.0005 *D NOR5xp2_ASAP7_75t_L
*P *38 I

*CAP
1 *3215:D 0

*RES
1 *38 *3215:D 0
*END

*D_NET *1122 0.000000

*CONN
*I *3215:E I *L 0.0005 *D NOR5xp2_ASAP7_75t_L
*P *39 I

*CAP
1 *3215:E 0

*RES
1 *39 *3215:E 0
*END

*D_NET *1123 0.000000

*CONN
*I *3155:A I *L 0.0005 *D AND2x2_ASAP7_75t_L
*P *70 I

*CAP
1 *3155:A 0

*RES
1 *70 *3155:A 0
*END

*D_NET *1124 0.000000

*CONN
*I *3130:A I *L 0.0005 *D AND2x2_ASAP7_75t_L
*P *71 I

*CAP
1 *3130:A 0

*RES
1 *71 *3130:A 0
*END

*D_NET *1125 0.000000

*CONN
*I *3157:A I *L 0.0005 *D AND2x2_ASAP7_75t_L
*P *72 I

*CAP
1 *3157:A 0

*RES
1 *72 *3157:A 0
*END

*D_NET *1126 0.000000

*CONN
*I *3150:A I *L 0.0005 *D AND2x2_ASAP7_75t_L
*P *73 I

*CAP
1 *3150:A 0

*RES
1 *73 *3150:A 0
*END

*D_NET *1127 0.000000

*CONN
*I *3128:A I *L 0.0005 *D AND2x2_ASAP7_75t_L
*P *74 I

*CAP
1 *3128:A 0

*RES
1 *74 *3128:A 0
*END

*D_NET *1128 0.000000

*CONN
*I *3118:A I *L 0.0005 *D AND2x2_ASAP7_75t_L
*P *75 I

*CAP
1 *3118:A 0

*RES
1 *75 *3118:A 0
*END

*D_NET *1129 0.000000

*CONN
*I *3162:A I *L 0.0005 *D AND2x2_ASAP7_75t_L
*P *76 I

*CAP
1 *3162:A 0

*RES
1 *76 *3162:A 0
*END

*D_NET *1130 0.000000

*CONN
*I *3152:A I *L 0.0005 *D AND2x2_ASAP7_75t_L
*P *77 I

*CAP
1 *3152:A 0

*RES
1 *77 *3152:A 0
*END

*D_NET *1131 0.000000

*CONN
*I *3123:A I *L 0.0005 *D AND2x2_ASAP7_75t_L
*P *78 I

*CAP
1 *3123:A 0

*RES
1 *78 *3123:A 0
*END

*D_NET *1132 0.000000

*CONN
*I *3136:A I *L 0.0005 *D AND2x2_ASAP7_75t_L
*P *79 I

*CAP
1 *3136:A 0

*RES
1 *79 *3136:A 0
*END

*D_NET *1133 0.000000

*CONN
*I *3147:A I *L 0.0005 *D AND2x2_ASAP7_75t_L
*P *80 I

*CAP
1 *3147:A 0

*RES
1 *80 *3147:A 0
*END

*D_NET *1134 0.000000

*CONN
*I *3159:A I *L 0.0005 *D AND2x2_ASAP7_75t_L
*P *81 I

*CAP
1 *3159:A 0

*RES
1 *81 *3159:A 0
*END

*D_NET *1135 0.000000

*CONN
*I *3166:A I *L 0.0005 *D AND2x2_ASAP7_75t_L
*P *82 I

*CAP
1 *3166:A 0

*RES
1 *82 *3166:A 0
*END

*D_NET *1136 0.000000

*CONN
*I *3119:A I *L 0.0005 *D AND2x2_ASAP7_75t_L
*P *83 I

*CAP
1 *3119:A 0

*RES
1 *83 *3119:A 0
*END

*D_NET *1137 0.000000

*CONN
*I *3156:A I *L 0.0005 *D AND2x2_ASAP7_75t_L
*P *84 I

*CAP
1 *3156:A 0

*RES
1 *84 *3156:A 0
*END

*D_NET *1138 0.000000

*CONN
*I *3165:A I *L 0.0005 *D AND2x2_ASAP7_75t_L
*P *85 I

*CAP
1 *3165:A 0

*RES
1 *85 *3165:A 0
*END

*D_NET *1139 0.000000

*CONN
*I *3134:A I *L 0.0005 *D AND2x2_ASAP7_75t_L
*P *86 I

*CAP
1 *3134:A 0

*RES
1 *86 *3134:A 0
*END

*D_NET *1140 0.000000

*CONN
*I *3161:A I *L 0.0005 *D AND2x2_ASAP7_75t_L
*P *87 I

*CAP
1 *3161:A 0

*RES
1 *87 *3161:A 0
*END

*D_NET *1141 0.000000

*CONN
*I *3145:A I *L 0.0005 *D AND2x2_ASAP7_75t_L
*P *88 I

*CAP
1 *3145:A 0

*RES
1 *88 *3145:A 0
*END

*D_NET *1142 0.000000

*CONN
*I *3122:A I *L 0.0005 *D AND2x2_ASAP7_75t_L
*P *89 I

*CAP
1 *3122:A 0

*RES
1 *89 *3122:A 0
*END

*D_NET *1143 0.000000

*CONN
*I *3168:A I *L 0.0005 *D AND2x2_ASAP7_75t_L
*P *90 I

*CAP
1 *3168:A 0

*RES
1 *90 *3168:A 0
*END

*D_NET *1144 0.000000

*CONN
*I *3160:A I *L 0.0005 *D AND2x2_ASAP7_75t_L
*P *91 I

*CAP
1 *3160:A 0

*RES
1 *91 *3160:A 0
*END

*D_NET *1145 0.000000

*CONN
*I *3158:A I *L 0.0005 *D AND2x2_ASAP7_75t_L
*P *92 I

*CAP
1 *3158:A 0

*RES
1 *92 *3158:A 0
*END

*D_NET *1146 0.000000

*CONN
*I *3127:A I *L 0.0005 *D AND2x2_ASAP7_75t_L
*P *93 I

*CAP
1 *3127:A 0

*RES
1 *93 *3127:A 0
*END

*D_NET *1147 0.000000

*CONN
*I *3144:A I *L 0.0005 *D AND2x2_ASAP7_75t_L
*P *94 I

*CAP
1 *3144:A 0

*RES
1 *94 *3144:A 0
*END

*D_NET *1148 0.000000

*CONN
*I *3120:A I *L 0.0005 *D AND2x2_ASAP7_75t_L
*P *95 I

*CAP
1 *3120:A 0

*RES
1 *95 *3120:A 0
*END

*D_NET *1149 0.000000

*CONN
*I *3138:A I *L 0.0005 *D AND2x2_ASAP7_75t_L
*P *96 I

*CAP
1 *3138:A 0

*RES
1 *96 *3138:A 0
*END

*D_NET *1150 0.000000

*CONN
*I *3124:A I *L 0.0005 *D AND2x2_ASAP7_75t_L
*P *97 I

*CAP
1 *3124:A 0

*RES
1 *97 *3124:A 0
*END

*D_NET *1151 0.000000

*CONN
*I *3121:A I *L 0.0005 *D AND2x2_ASAP7_75t_L
*P *98 I

*CAP
1 *3121:A 0

*RES
1 *98 *3121:A 0
*END

*D_NET *1152 0.000000

*CONN
*I *3125:A I *L 0.0005 *D AND2x2_ASAP7_75t_L
*P *99 I

*CAP
1 *3125:A 0

*RES
1 *99 *3125:A 0
*END

*D_NET *1153 0.000000

*CONN
*I *3142:A I *L 0.0005 *D AND2x2_ASAP7_75t_L
*P *100 I

*CAP
1 *3142:A 0

*RES
1 *100 *3142:A 0
*END

*D_NET *1154 0.000000

*CONN
*I *3164:A I *L 0.0005 *D AND2x2_ASAP7_75t_L
*P *101 I

*CAP
1 *3164:A 0

*RES
1 *101 *3164:A 0
*END

*D_NET *1155 0.000000

*CONN
*I *3249:D I *L 0.0005 *D NAND4xp25_ASAP7_75t_L
*I *3163:A I *L 0.0005 *D AND2x2_ASAP7_75t_L
*P *102 I

*CAP
1 *3249:D 0
2 *3163:A 0

*RES
1 *102 *3249:D 0
2 *102 *3163:A 0
*END

*D_NET *1156 0.000000

*CONN
*I *3249:C I *L 0.0005 *D NAND4xp25_ASAP7_75t_L
*I *3133:A I *L 0.0005 *D AND2x2_ASAP7_75t_L
*P *103 I

*CAP
1 *3249:C 0
2 *3133:A 0

*RES
1 *103 *3249:C 0
2 *103 *3133:A 0
*END

*D_NET *1157 0.000000

*CONN
*I *3249:B I *L 0.0005 *D NAND4xp25_ASAP7_75t_L
*I *3131:A I *L 0.0005 *D AND2x2_ASAP7_75t_L
*P *104 I

*CAP
1 *3249:B 0
2 *3131:A 0

*RES
1 *104 *3249:B 0
2 *104 *3131:A 0
*END

*D_NET *1158 0.000000

*CONN
*I *3249:A I *L 0.0005 *D NAND4xp25_ASAP7_75t_L
*I *3116:A I *L 0.0005 *D AND2x2_ASAP7_75t_L
*P *105 I

*CAP
1 *3249:A 0
2 *3116:A 0

*RES
1 *105 *3249:A 0
2 *105 *3116:A 0
*END

*D_NET *1159 0.000000

*CONN
*I *3023:A I *L 0.0005 *D AND2x2_ASAP7_75t_L
*P *109 I

*CAP
1 *3023:A 0

*RES
1 *109 *3023:A 0
*END

*D_NET *1160 0.000000

*CONN
*I *3022:A I *L 0.0005 *D AND2x2_ASAP7_75t_L
*P *110 I

*CAP
1 *3022:A 0

*RES
1 *110 *3022:A 0
*END

*D_NET *1161 0.000000

*CONN
*I *3021:A I *L 0.0005 *D AND2x2_ASAP7_75t_L
*P *111 I

*CAP
1 *3021:A 0

*RES
1 *111 *3021:A 0
*END

*D_NET *1162 0.000000

*CONN
*I *3020:A I *L 0.0005 *D AND2x2_ASAP7_75t_L
*P *112 I

*CAP
1 *3020:A 0

*RES
1 *112 *3020:A 0
*END

*D_NET *1163 0.000000

*CONN
*I *3019:A I *L 0.0005 *D AND2x2_ASAP7_75t_L
*P *113 I

*CAP
1 *3019:A 0

*RES
1 *113 *3019:A 0
*END

*D_NET *1164 0.000000

*CONN
*I *3195:A I *L 0.0005 *D NAND2xp5_ASAP7_75t_L
*P *130 I

*CAP
1 *3195:A 0

*RES
1 *130 *3195:A 0
*END

*D_NET *1165 0.000000

*CONN
*I *3198:A I *L 0.0005 *D NAND2xp5_ASAP7_75t_L
*P *131 I

*CAP
1 *3198:A 0

*RES
1 *131 *3198:A 0
*END

*D_NET *1166 0.000000

*CONN
*I *3197:A I *L 0.0005 *D NAND2xp5_ASAP7_75t_L
*P *132 I

*CAP
1 *3197:A 0

*RES
1 *132 *3197:A 0
*END

*D_NET *1167 0.000000

*CONN
*I *3194:A I *L 0.0005 *D NAND2xp5_ASAP7_75t_L
*P *133 I

*CAP
1 *3194:A 0

*RES
1 *133 *3194:A 0
*END

*D_NET *1168 0.000000

*CONN
*I *3186:A I *L 0.0005 *D NAND2xp5_ASAP7_75t_L
*P *134 I

*CAP
1 *3186:A 0

*RES
1 *134 *3186:A 0
*END

*D_NET *1169 0.000000

*CONN
*I *3184:A I *L 0.0005 *D NAND2xp5_ASAP7_75t_L
*P *135 I

*CAP
1 *3184:A 0

*RES
1 *135 *3184:A 0
*END

*D_NET *1170 0.000000

*CONN
*I *3185:A I *L 0.0005 *D NAND2xp5_ASAP7_75t_L
*P *136 I

*CAP
1 *3185:A 0

*RES
1 *136 *3185:A 0
*END

*D_NET *1171 0.000000

*CONN
*I *3191:A I *L 0.0005 *D NAND2xp5_ASAP7_75t_L
*P *137 I

*CAP
1 *3191:A 0

*RES
1 *137 *3191:A 0
*END

*D_NET *1172 0.000000

*CONN
*I *3189:A I *L 0.0005 *D NAND2xp5_ASAP7_75t_L
*P *138 I

*CAP
1 *3189:A 0

*RES
1 *138 *3189:A 0
*END

*D_NET *1173 0.000000

*CONN
*I *3187:A I *L 0.0005 *D NAND2xp5_ASAP7_75t_L
*P *139 I

*CAP
1 *3187:A 0

*RES
1 *139 *3187:A 0
*END

*D_NET *1174 0.000000

*CONN
*I *3188:A I *L 0.0005 *D NAND2xp5_ASAP7_75t_L
*P *140 I

*CAP
1 *3188:A 0

*RES
1 *140 *3188:A 0
*END

*D_NET *1175 0.000000

*CONN
*I *3193:A I *L 0.0005 *D NAND2xp5_ASAP7_75t_L
*P *141 I

*CAP
1 *3193:A 0

*RES
1 *141 *3193:A 0
*END

*D_NET *1176 0.000000

*CONN
*I *3190:A I *L 0.0005 *D NAND2xp5_ASAP7_75t_L
*P *142 I

*CAP
1 *3190:A 0

*RES
1 *142 *3190:A 0
*END

*D_NET *1177 0.000000

*CONN
*I *3192:A I *L 0.0005 *D NAND2xp5_ASAP7_75t_L
*P *143 I

*CAP
1 *3192:A 0

*RES
1 *143 *3192:A 0
*END

*D_NET *1178 0.000000

*CONN
*I *3220:D I *L 0.0005 *D NOR5xp2_ASAP7_75t_L
*P *144 I

*CAP
1 *3220:D 0

*RES
1 *144 *3220:D 0
*END

*D_NET *1179 0.000000

*CONN
*I *3220:E I *L 0.0005 *D NOR5xp2_ASAP7_75t_L
*P *145 I

*CAP
1 *3220:E 0

*RES
1 *145 *3220:E 0
*END

*D_NET *1180 0.000000

*CONN
*I *3089:A2 I *L 0.0005 *D OAI211xp5_ASAP7_75t_L
*I *3005:C I *L 0.0005 *D NOR3xp33_ASAP7_75t_L
*I *3167:B I *L 0.0005 *D NAND2xp5_ASAP7_75t_L
*I *3347:SN O *L 0.0000 *D HAxp5_ASAP7_75t_L

*CAP
1 *3089:A2 0
2 *3005:C 0
3 *3167:B 0

*RES
1 *3347:SN *3089:A2 0
2 *3347:SN *3005:C 0
3 *3347:SN *3167:B 0
*END

*D_NET *1181 0.000000

*CONN
*I *3216:B I *L 0.0004 *D NOR2xp33_ASAP7_75t_L
*I *3176:A2 I *L 0.0006 *D AO21x1_ASAP7_75t_L
*I *3347:CON O *L 0.0000 *D HAxp5_ASAP7_75t_L

*CAP
1 *3216:B 0
2 *3176:A2 0

*RES
1 *3347:CON *3216:B 0
2 *3347:CON *3176:A2 0
*END

*D_NET *1182 0.000000

*CONN
*I *3223:A I *L 0.0006 *D INVx1_ASAP7_75t_L
*I *3113:B1 I *L 0.0005 *D OAI221xp5_ASAP7_75t_L
*I *3006:C I *L 0.0005 *D NOR3xp33_ASAP7_75t_L
*I *3348:SN O *L 0.0000 *D HAxp5_ASAP7_75t_L

*CAP
1 *3223:A 0
2 *3113:B1 0
3 *3006:C 0

*RES
1 *3348:SN *3223:A 0
2 *3348:SN *3113:B1 0
3 *3348:SN *3006:C 0
*END

*D_NET *1183 0.000000

*CONN
*I *3349:A I *L 0.0003 *D INVxp33_ASAP7_75t_R
*I *3348:CON O *L 0.0000 *D HAxp5_ASAP7_75t_L

*CAP
1 *3349:A 0

*RES
1 *3348:CON *3349:A 0
*END

*D_NET *1184 0.000000

*CONN
*I *3347:B I *L 0.0009 *D HAxp5_ASAP7_75t_L
*I *3349:Y O *L 0.0000 *D INVxp33_ASAP7_75t_R

*CAP
1 *3347:B 0

*RES
1 *3349:Y *3347:B 0
*END

*D_NET *1185 0.000000

*CONN
*I *2849:C I *L 0.0005 *D NOR3xp33_ASAP7_75t_L
*I *3350:SN O *L 0.0000 *D HAxp5_ASAP7_75t_L

*CAP
1 *2849:C 0

*RES
1 *3350:SN *2849:C 0
*END

*D_NET *1186 0.000000

*CONN
*I *3351:A I *L 0.0003 *D INVxp33_ASAP7_75t_R
*I *3350:CON O *L 0.0000 *D HAxp5_ASAP7_75t_L

*CAP
1 *3351:A 0

*RES
1 *3350:CON *3351:A 0
*END

*D_NET *1187 0.000000

*CONN
*I *3352:B I *L 0.0009 *D HAxp5_ASAP7_75t_L
*I *3351:Y O *L 0.0000 *D INVxp33_ASAP7_75t_R

*CAP
1 *3352:B 0

*RES
1 *3351:Y *3352:B 0
*END

*D_NET *1188 0.000000

*CONN
*I *2861:C I *L 0.0005 *D NOR3xp33_ASAP7_75t_L
*I *3352:SN O *L 0.0000 *D HAxp5_ASAP7_75t_L

*CAP
1 *2861:C 0

*RES
1 *3352:SN *2861:C 0
*END

*D_NET *1189 0.000000

*CONN
*I *3218:B I *L 0.0004 *D NOR2xp33_ASAP7_75t_L
*I *3153:B I *L 0.0010 *D XOR2xp5_ASAP7_75t_L
*I *3352:CON O *L 0.0000 *D HAxp5_ASAP7_75t_L

*CAP
1 *3218:B 0
2 *3153:B 0

*RES
1 *3352:CON *3218:B 0
2 *3352:CON *3153:B 0
*END

*D_NET *1190 0.000000

*CONN
*I *2425:A1 I *L 0.0004 *D AOI22xp33_ASAP7_75t_L
*I *2097:dataout[0] O *L 0.0000 *D srambank_256x4x32_6t122

*CAP
1 *2425:A1 0

*RES
1 *2097:dataout[0] *2425:A1 0
*END

*D_NET *1191 0.000000

*CONN
*I *2424:A1 I *L 0.0004 *D AOI22xp33_ASAP7_75t_L
*I *2097:dataout[1] O *L 0.0000 *D srambank_256x4x32_6t122

*CAP
1 *2424:A1 0

*RES
1 *2097:dataout[1] *2424:A1 0
*END

*D_NET *1192 0.000000

*CONN
*I *2422:A1 I *L 0.0004 *D AOI22xp33_ASAP7_75t_L
*I *2097:dataout[2] O *L 0.0000 *D srambank_256x4x32_6t122

*CAP
1 *2422:A1 0

*RES
1 *2097:dataout[2] *2422:A1 0
*END

*D_NET *1193 0.000000

*CONN
*I *2420:A1 I *L 0.0004 *D AOI22xp33_ASAP7_75t_L
*I *2097:dataout[3] O *L 0.0000 *D srambank_256x4x32_6t122

*CAP
1 *2420:A1 0

*RES
1 *2097:dataout[3] *2420:A1 0
*END

*D_NET *1194 0.000000

*CONN
*I *2418:A1 I *L 0.0004 *D AOI22xp33_ASAP7_75t_L
*I *2097:dataout[4] O *L 0.0000 *D srambank_256x4x32_6t122

*CAP
1 *2418:A1 0

*RES
1 *2097:dataout[4] *2418:A1 0
*END

*D_NET *1195 0.000000

*CONN
*I *2416:A1 I *L 0.0004 *D AOI22xp33_ASAP7_75t_L
*I *2097:dataout[5] O *L 0.0000 *D srambank_256x4x32_6t122

*CAP
1 *2416:A1 0

*RES
1 *2097:dataout[5] *2416:A1 0
*END

*D_NET *1196 0.000000

*CONN
*I *2414:A1 I *L 0.0004 *D AOI22xp33_ASAP7_75t_L
*I *2097:dataout[6] O *L 0.0000 *D srambank_256x4x32_6t122

*CAP
1 *2414:A1 0

*RES
1 *2097:dataout[6] *2414:A1 0
*END

*D_NET *1197 0.000000

*CONN
*I *2412:A1 I *L 0.0004 *D AOI22xp33_ASAP7_75t_L
*I *2097:dataout[7] O *L 0.0000 *D srambank_256x4x32_6t122

*CAP
1 *2412:A1 0

*RES
1 *2097:dataout[7] *2412:A1 0
*END

*D_NET *1198 0.000000

*CONN
*I *2410:A1 I *L 0.0004 *D AOI22xp33_ASAP7_75t_L
*I *2097:dataout[8] O *L 0.0000 *D srambank_256x4x32_6t122

*CAP
1 *2410:A1 0

*RES
1 *2097:dataout[8] *2410:A1 0
*END

*D_NET *1199 0.000000

*CONN
*I *2409:A1 I *L 0.0004 *D AOI22xp33_ASAP7_75t_L
*I *2097:dataout[9] O *L 0.0000 *D srambank_256x4x32_6t122

*CAP
1 *2409:A1 0

*RES
1 *2097:dataout[9] *2409:A1 0
*END

*D_NET *1200 0.000000

*CONN
*I *2406:A1 I *L 0.0004 *D AOI22xp33_ASAP7_75t_L
*I *2097:dataout[10] O *L 0.0000 *D srambank_256x4x32_6t122

*CAP
1 *2406:A1 0

*RES
1 *2097:dataout[10] *2406:A1 0
*END

*D_NET *1201 0.000000

*CONN
*I *2436:A1 I *L 0.0004 *D AOI22xp33_ASAP7_75t_L
*I *2097:dataout[11] O *L 0.0000 *D srambank_256x4x32_6t122

*CAP
1 *2436:A1 0

*RES
1 *2097:dataout[11] *2436:A1 0
*END

*D_NET *1202 0.000000

*CONN
*I *2434:A1 I *L 0.0004 *D AOI22xp33_ASAP7_75t_L
*I *2097:dataout[12] O *L 0.0000 *D srambank_256x4x32_6t122

*CAP
1 *2434:A1 0

*RES
1 *2097:dataout[12] *2434:A1 0
*END

*D_NET *1203 0.000000

*CONN
*I *2432:A1 I *L 0.0004 *D AOI22xp33_ASAP7_75t_L
*I *2097:dataout[13] O *L 0.0000 *D srambank_256x4x32_6t122

*CAP
1 *2432:A1 0

*RES
1 *2097:dataout[13] *2432:A1 0
*END

*D_NET *1204 0.000000

*CONN
*I *2430:A1 I *L 0.0004 *D AOI22xp33_ASAP7_75t_L
*I *2097:dataout[14] O *L 0.0000 *D srambank_256x4x32_6t122

*CAP
1 *2430:A1 0

*RES
1 *2097:dataout[14] *2430:A1 0
*END

*D_NET *1205 0.000000

*CONN
*I *2428:A1 I *L 0.0004 *D AOI22xp33_ASAP7_75t_L
*I *2097:dataout[15] O *L 0.0000 *D srambank_256x4x32_6t122

*CAP
1 *2428:A1 0

*RES
1 *2097:dataout[15] *2428:A1 0
*END

*D_NET *1206 0.000000

*CONN
*I *2426:A1 I *L 0.0004 *D AOI22xp33_ASAP7_75t_L
*I *2097:dataout[16] O *L 0.0000 *D srambank_256x4x32_6t122

*CAP
1 *2426:A1 0

*RES
1 *2097:dataout[16] *2426:A1 0
*END

*D_NET *1207 0.000000

*CONN
*I *2423:A1 I *L 0.0004 *D AOI22xp33_ASAP7_75t_L
*I *2097:dataout[17] O *L 0.0000 *D srambank_256x4x32_6t122

*CAP
1 *2423:A1 0

*RES
1 *2097:dataout[17] *2423:A1 0
*END

*D_NET *1208 0.000000

*CONN
*I *2419:A1 I *L 0.0004 *D AOI22xp33_ASAP7_75t_L
*I *2097:dataout[18] O *L 0.0000 *D srambank_256x4x32_6t122

*CAP
1 *2419:A1 0

*RES
1 *2097:dataout[18] *2419:A1 0
*END

*D_NET *1209 0.000000

*CONN
*I *2415:A1 I *L 0.0004 *D AOI22xp33_ASAP7_75t_L
*I *2097:dataout[19] O *L 0.0000 *D srambank_256x4x32_6t122

*CAP
1 *2415:A1 0

*RES
1 *2097:dataout[19] *2415:A1 0
*END

*D_NET *1210 0.000000

*CONN
*I *2411:A1 I *L 0.0004 *D AOI22xp33_ASAP7_75t_L
*I *2097:dataout[20] O *L 0.0000 *D srambank_256x4x32_6t122

*CAP
1 *2411:A1 0

*RES
1 *2097:dataout[20] *2411:A1 0
*END

*D_NET *1211 0.000000

*CONN
*I *2407:A1 I *L 0.0004 *D AOI22xp33_ASAP7_75t_L
*I *2097:dataout[21] O *L 0.0000 *D srambank_256x4x32_6t122

*CAP
1 *2407:A1 0

*RES
1 *2097:dataout[21] *2407:A1 0
*END

*D_NET *1212 0.000000

*CONN
*I *2435:A1 I *L 0.0004 *D AOI22xp33_ASAP7_75t_L
*I *2097:dataout[22] O *L 0.0000 *D srambank_256x4x32_6t122

*CAP
1 *2435:A1 0

*RES
1 *2097:dataout[22] *2435:A1 0
*END

*D_NET *1213 0.000000

*CONN
*I *2431:A1 I *L 0.0004 *D AOI22xp33_ASAP7_75t_L
*I *2097:dataout[23] O *L 0.0000 *D srambank_256x4x32_6t122

*CAP
1 *2431:A1 0

*RES
1 *2097:dataout[23] *2431:A1 0
*END

*D_NET *1214 0.000000

*CONN
*I *2427:A1 I *L 0.0004 *D AOI22xp33_ASAP7_75t_L
*I *2097:dataout[24] O *L 0.0000 *D srambank_256x4x32_6t122

*CAP
1 *2427:A1 0

*RES
1 *2097:dataout[24] *2427:A1 0
*END

*D_NET *1215 0.000000

*CONN
*I *2421:A1 I *L 0.0004 *D AOI22xp33_ASAP7_75t_L
*I *2097:dataout[25] O *L 0.0000 *D srambank_256x4x32_6t122

*CAP
1 *2421:A1 0

*RES
1 *2097:dataout[25] *2421:A1 0
*END

*D_NET *1216 0.000000

*CONN
*I *2413:A1 I *L 0.0004 *D AOI22xp33_ASAP7_75t_L
*I *2097:dataout[26] O *L 0.0000 *D srambank_256x4x32_6t122

*CAP
1 *2413:A1 0

*RES
1 *2097:dataout[26] *2413:A1 0
*END

*D_NET *1217 0.000000

*CONN
*I *2405:A1 I *L 0.0004 *D AOI22xp33_ASAP7_75t_L
*I *2097:dataout[27] O *L 0.0000 *D srambank_256x4x32_6t122

*CAP
1 *2405:A1 0

*RES
1 *2097:dataout[27] *2405:A1 0
*END

*D_NET *1218 0.000000

*CONN
*I *2429:A1 I *L 0.0004 *D AOI22xp33_ASAP7_75t_L
*I *2097:dataout[28] O *L 0.0000 *D srambank_256x4x32_6t122

*CAP
1 *2429:A1 0

*RES
1 *2097:dataout[28] *2429:A1 0
*END

*D_NET *1219 0.000000

*CONN
*I *2417:A1 I *L 0.0004 *D AOI22xp33_ASAP7_75t_L
*I *2097:dataout[29] O *L 0.0000 *D srambank_256x4x32_6t122

*CAP
1 *2417:A1 0

*RES
1 *2097:dataout[29] *2417:A1 0
*END

*D_NET *1220 0.000000

*CONN
*I *2433:A1 I *L 0.0004 *D AOI22xp33_ASAP7_75t_L
*I *2097:dataout[30] O *L 0.0000 *D srambank_256x4x32_6t122

*CAP
1 *2433:A1 0

*RES
1 *2097:dataout[30] *2433:A1 0
*END

*D_NET *1221 0.000000

*CONN
*I *2408:A1 I *L 0.0004 *D AOI22xp33_ASAP7_75t_L
*I *2097:dataout[31] O *L 0.0000 *D srambank_256x4x32_6t122

*CAP
1 *2408:A1 0

*RES
1 *2097:dataout[31] *2408:A1 0
*END

*D_NET *1222 0.000000

*CONN
*I *2425:B1 I *L 0.0004 *D AOI22xp33_ASAP7_75t_L
*I *2098:dataout[0] O *L 0.0000 *D srambank_256x4x32_6t122

*CAP
1 *2425:B1 0

*RES
1 *2098:dataout[0] *2425:B1 0
*END

*D_NET *1223 0.000000

*CONN
*I *2424:B1 I *L 0.0004 *D AOI22xp33_ASAP7_75t_L
*I *2098:dataout[1] O *L 0.0000 *D srambank_256x4x32_6t122

*CAP
1 *2424:B1 0

*RES
1 *2098:dataout[1] *2424:B1 0
*END

*D_NET *1224 0.000000

*CONN
*I *2422:B1 I *L 0.0004 *D AOI22xp33_ASAP7_75t_L
*I *2098:dataout[2] O *L 0.0000 *D srambank_256x4x32_6t122

*CAP
1 *2422:B1 0

*RES
1 *2098:dataout[2] *2422:B1 0
*END

*D_NET *1225 0.000000

*CONN
*I *2420:B1 I *L 0.0004 *D AOI22xp33_ASAP7_75t_L
*I *2098:dataout[3] O *L 0.0000 *D srambank_256x4x32_6t122

*CAP
1 *2420:B1 0

*RES
1 *2098:dataout[3] *2420:B1 0
*END

*D_NET *1226 0.000000

*CONN
*I *2418:B1 I *L 0.0004 *D AOI22xp33_ASAP7_75t_L
*I *2098:dataout[4] O *L 0.0000 *D srambank_256x4x32_6t122

*CAP
1 *2418:B1 0

*RES
1 *2098:dataout[4] *2418:B1 0
*END

*D_NET *1227 0.000000

*CONN
*I *2416:B1 I *L 0.0004 *D AOI22xp33_ASAP7_75t_L
*I *2098:dataout[5] O *L 0.0000 *D srambank_256x4x32_6t122

*CAP
1 *2416:B1 0

*RES
1 *2098:dataout[5] *2416:B1 0
*END

*D_NET *1228 0.000000

*CONN
*I *2414:B1 I *L 0.0004 *D AOI22xp33_ASAP7_75t_L
*I *2098:dataout[6] O *L 0.0000 *D srambank_256x4x32_6t122

*CAP
1 *2414:B1 0

*RES
1 *2098:dataout[6] *2414:B1 0
*END

*D_NET *1229 0.000000

*CONN
*I *2412:B1 I *L 0.0004 *D AOI22xp33_ASAP7_75t_L
*I *2098:dataout[7] O *L 0.0000 *D srambank_256x4x32_6t122

*CAP
1 *2412:B1 0

*RES
1 *2098:dataout[7] *2412:B1 0
*END

*D_NET *1230 0.000000

*CONN
*I *2410:B1 I *L 0.0004 *D AOI22xp33_ASAP7_75t_L
*I *2098:dataout[8] O *L 0.0000 *D srambank_256x4x32_6t122

*CAP
1 *2410:B1 0

*RES
1 *2098:dataout[8] *2410:B1 0
*END

*D_NET *1231 0.000000

*CONN
*I *2409:B1 I *L 0.0004 *D AOI22xp33_ASAP7_75t_L
*I *2098:dataout[9] O *L 0.0000 *D srambank_256x4x32_6t122

*CAP
1 *2409:B1 0

*RES
1 *2098:dataout[9] *2409:B1 0
*END

*D_NET *1232 0.000000

*CONN
*I *2406:B1 I *L 0.0004 *D AOI22xp33_ASAP7_75t_L
*I *2098:dataout[10] O *L 0.0000 *D srambank_256x4x32_6t122

*CAP
1 *2406:B1 0

*RES
1 *2098:dataout[10] *2406:B1 0
*END

*D_NET *1233 0.000000

*CONN
*I *2436:B1 I *L 0.0004 *D AOI22xp33_ASAP7_75t_L
*I *2098:dataout[11] O *L 0.0000 *D srambank_256x4x32_6t122

*CAP
1 *2436:B1 0

*RES
1 *2098:dataout[11] *2436:B1 0
*END

*D_NET *1234 0.000000

*CONN
*I *2434:B1 I *L 0.0004 *D AOI22xp33_ASAP7_75t_L
*I *2098:dataout[12] O *L 0.0000 *D srambank_256x4x32_6t122

*CAP
1 *2434:B1 0

*RES
1 *2098:dataout[12] *2434:B1 0
*END

*D_NET *1235 0.000000

*CONN
*I *2432:B1 I *L 0.0004 *D AOI22xp33_ASAP7_75t_L
*I *2098:dataout[13] O *L 0.0000 *D srambank_256x4x32_6t122

*CAP
1 *2432:B1 0

*RES
1 *2098:dataout[13] *2432:B1 0
*END

*D_NET *1236 0.000000

*CONN
*I *2430:B1 I *L 0.0004 *D AOI22xp33_ASAP7_75t_L
*I *2098:dataout[14] O *L 0.0000 *D srambank_256x4x32_6t122

*CAP
1 *2430:B1 0

*RES
1 *2098:dataout[14] *2430:B1 0
*END

*D_NET *1237 0.000000

*CONN
*I *2428:B1 I *L 0.0004 *D AOI22xp33_ASAP7_75t_L
*I *2098:dataout[15] O *L 0.0000 *D srambank_256x4x32_6t122

*CAP
1 *2428:B1 0

*RES
1 *2098:dataout[15] *2428:B1 0
*END

*D_NET *1238 0.000000

*CONN
*I *2426:B1 I *L 0.0004 *D AOI22xp33_ASAP7_75t_L
*I *2098:dataout[16] O *L 0.0000 *D srambank_256x4x32_6t122

*CAP
1 *2426:B1 0

*RES
1 *2098:dataout[16] *2426:B1 0
*END

*D_NET *1239 0.000000

*CONN
*I *2423:B1 I *L 0.0004 *D AOI22xp33_ASAP7_75t_L
*I *2098:dataout[17] O *L 0.0000 *D srambank_256x4x32_6t122

*CAP
1 *2423:B1 0

*RES
1 *2098:dataout[17] *2423:B1 0
*END

*D_NET *1240 0.000000

*CONN
*I *2419:B1 I *L 0.0004 *D AOI22xp33_ASAP7_75t_L
*I *2098:dataout[18] O *L 0.0000 *D srambank_256x4x32_6t122

*CAP
1 *2419:B1 0

*RES
1 *2098:dataout[18] *2419:B1 0
*END

*D_NET *1241 0.000000

*CONN
*I *2415:B1 I *L 0.0004 *D AOI22xp33_ASAP7_75t_L
*I *2098:dataout[19] O *L 0.0000 *D srambank_256x4x32_6t122

*CAP
1 *2415:B1 0

*RES
1 *2098:dataout[19] *2415:B1 0
*END

*D_NET *1242 0.000000

*CONN
*I *2411:B1 I *L 0.0004 *D AOI22xp33_ASAP7_75t_L
*I *2098:dataout[20] O *L 0.0000 *D srambank_256x4x32_6t122

*CAP
1 *2411:B1 0

*RES
1 *2098:dataout[20] *2411:B1 0
*END

*D_NET *1243 0.000000

*CONN
*I *2407:B1 I *L 0.0004 *D AOI22xp33_ASAP7_75t_L
*I *2098:dataout[21] O *L 0.0000 *D srambank_256x4x32_6t122

*CAP
1 *2407:B1 0

*RES
1 *2098:dataout[21] *2407:B1 0
*END

*D_NET *1244 0.000000

*CONN
*I *2435:B1 I *L 0.0004 *D AOI22xp33_ASAP7_75t_L
*I *2098:dataout[22] O *L 0.0000 *D srambank_256x4x32_6t122

*CAP
1 *2435:B1 0

*RES
1 *2098:dataout[22] *2435:B1 0
*END

*D_NET *1245 0.000000

*CONN
*I *2431:B1 I *L 0.0004 *D AOI22xp33_ASAP7_75t_L
*I *2098:dataout[23] O *L 0.0000 *D srambank_256x4x32_6t122

*CAP
1 *2431:B1 0

*RES
1 *2098:dataout[23] *2431:B1 0
*END

*D_NET *1246 0.000000

*CONN
*I *2427:B1 I *L 0.0004 *D AOI22xp33_ASAP7_75t_L
*I *2098:dataout[24] O *L 0.0000 *D srambank_256x4x32_6t122

*CAP
1 *2427:B1 0

*RES
1 *2098:dataout[24] *2427:B1 0
*END

*D_NET *1247 0.000000

*CONN
*I *2421:B1 I *L 0.0004 *D AOI22xp33_ASAP7_75t_L
*I *2098:dataout[25] O *L 0.0000 *D srambank_256x4x32_6t122

*CAP
1 *2421:B1 0

*RES
1 *2098:dataout[25] *2421:B1 0
*END

*D_NET *1248 0.000000

*CONN
*I *2413:B1 I *L 0.0004 *D AOI22xp33_ASAP7_75t_L
*I *2098:dataout[26] O *L 0.0000 *D srambank_256x4x32_6t122

*CAP
1 *2413:B1 0

*RES
1 *2098:dataout[26] *2413:B1 0
*END

*D_NET *1249 0.000000

*CONN
*I *2405:B1 I *L 0.0004 *D AOI22xp33_ASAP7_75t_L
*I *2098:dataout[27] O *L 0.0000 *D srambank_256x4x32_6t122

*CAP
1 *2405:B1 0

*RES
1 *2098:dataout[27] *2405:B1 0
*END

*D_NET *1250 0.000000

*CONN
*I *2429:B1 I *L 0.0004 *D AOI22xp33_ASAP7_75t_L
*I *2098:dataout[28] O *L 0.0000 *D srambank_256x4x32_6t122

*CAP
1 *2429:B1 0

*RES
1 *2098:dataout[28] *2429:B1 0
*END

*D_NET *1251 0.000000

*CONN
*I *2417:B1 I *L 0.0004 *D AOI22xp33_ASAP7_75t_L
*I *2098:dataout[29] O *L 0.0000 *D srambank_256x4x32_6t122

*CAP
1 *2417:B1 0

*RES
1 *2098:dataout[29] *2417:B1 0
*END

*D_NET *1252 0.000000

*CONN
*I *2433:B1 I *L 0.0004 *D AOI22xp33_ASAP7_75t_L
*I *2098:dataout[30] O *L 0.0000 *D srambank_256x4x32_6t122

*CAP
1 *2433:B1 0

*RES
1 *2098:dataout[30] *2433:B1 0
*END

*D_NET *1253 0.000000

*CONN
*I *2408:B1 I *L 0.0004 *D AOI22xp33_ASAP7_75t_L
*I *2098:dataout[31] O *L 0.0000 *D srambank_256x4x32_6t122

*CAP
1 *2408:B1 0

*RES
1 *2098:dataout[31] *2408:B1 0
*END

*D_NET *1254 0.000000

*CONN
*I *2370:A1 I *L 0.0004 *D AOI22xp33_ASAP7_75t_L
*I *2099:dataout[0] O *L 0.0000 *D srambank_256x4x32_6t122

*CAP
1 *2370:A1 0

*RES
1 *2099:dataout[0] *2370:A1 0
*END

*D_NET *1255 0.000000

*CONN
*I *2365:A1 I *L 0.0004 *D AOI22xp33_ASAP7_75t_L
*I *2099:dataout[1] O *L 0.0000 *D srambank_256x4x32_6t122

*CAP
1 *2365:A1 0

*RES
1 *2099:dataout[1] *2365:A1 0
*END

*D_NET *1256 0.000000

*CONN
*I *2358:A1 I *L 0.0004 *D AOI22xp33_ASAP7_75t_L
*I *2099:dataout[2] O *L 0.0000 *D srambank_256x4x32_6t122

*CAP
1 *2358:A1 0

*RES
1 *2099:dataout[2] *2358:A1 0
*END

*D_NET *1257 0.000000

*CONN
*I *2355:A1 I *L 0.0004 *D AOI22xp33_ASAP7_75t_L
*I *2099:dataout[3] O *L 0.0000 *D srambank_256x4x32_6t122

*CAP
1 *2355:A1 0

*RES
1 *2099:dataout[3] *2355:A1 0
*END

*D_NET *1258 0.000000

*CONN
*I *2348:A1 I *L 0.0004 *D AOI22xp33_ASAP7_75t_L
*I *2099:dataout[4] O *L 0.0000 *D srambank_256x4x32_6t122

*CAP
1 *2348:A1 0

*RES
1 *2099:dataout[4] *2348:A1 0
*END

*D_NET *1259 0.000000

*CONN
*I *2342:A1 I *L 0.0004 *D AOI22xp33_ASAP7_75t_L
*I *2099:dataout[5] O *L 0.0000 *D srambank_256x4x32_6t122

*CAP
1 *2342:A1 0

*RES
1 *2099:dataout[5] *2342:A1 0
*END

*D_NET *1260 0.000000

*CONN
*I *2335:A1 I *L 0.0004 *D AOI22xp33_ASAP7_75t_L
*I *2099:dataout[6] O *L 0.0000 *D srambank_256x4x32_6t122

*CAP
1 *2335:A1 0

*RES
1 *2099:dataout[6] *2335:A1 0
*END

*D_NET *1261 0.000000

*CONN
*I *2332:A1 I *L 0.0004 *D AOI22xp33_ASAP7_75t_L
*I *2099:dataout[7] O *L 0.0000 *D srambank_256x4x32_6t122

*CAP
1 *2332:A1 0

*RES
1 *2099:dataout[7] *2332:A1 0
*END

*D_NET *1262 0.000000

*CONN
*I *2325:A1 I *L 0.0004 *D AOI22xp33_ASAP7_75t_L
*I *2099:dataout[8] O *L 0.0000 *D srambank_256x4x32_6t122

*CAP
1 *2325:A1 0

*RES
1 *2099:dataout[8] *2325:A1 0
*END

*D_NET *1263 0.000000

*CONN
*I *2319:A1 I *L 0.0004 *D AOI22xp33_ASAP7_75t_L
*I *2099:dataout[9] O *L 0.0000 *D srambank_256x4x32_6t122

*CAP
1 *2319:A1 0

*RES
1 *2099:dataout[9] *2319:A1 0
*END

*D_NET *1264 0.000000

*CONN
*I *2312:A1 I *L 0.0004 *D AOI22xp33_ASAP7_75t_L
*I *2099:dataout[10] O *L 0.0000 *D srambank_256x4x32_6t122

*CAP
1 *2312:A1 0

*RES
1 *2099:dataout[10] *2312:A1 0
*END

*D_NET *1265 0.000000

*CONN
*I *2403:A1 I *L 0.0004 *D AOI22xp33_ASAP7_75t_L
*I *2099:dataout[11] O *L 0.0000 *D srambank_256x4x32_6t122

*CAP
1 *2403:A1 0

*RES
1 *2099:dataout[11] *2403:A1 0
*END

*D_NET *1266 0.000000

*CONN
*I *2397:A1 I *L 0.0004 *D AOI22xp33_ASAP7_75t_L
*I *2099:dataout[12] O *L 0.0000 *D srambank_256x4x32_6t122

*CAP
1 *2397:A1 0

*RES
1 *2099:dataout[12] *2397:A1 0
*END

*D_NET *1267 0.000000

*CONN
*I *2392:A1 I *L 0.0004 *D AOI22xp33_ASAP7_75t_L
*I *2099:dataout[13] O *L 0.0000 *D srambank_256x4x32_6t122

*CAP
1 *2392:A1 0

*RES
1 *2099:dataout[13] *2392:A1 0
*END

*D_NET *1268 0.000000

*CONN
*I *2385:A1 I *L 0.0004 *D AOI22xp33_ASAP7_75t_L
*I *2099:dataout[14] O *L 0.0000 *D srambank_256x4x32_6t122

*CAP
1 *2385:A1 0

*RES
1 *2099:dataout[14] *2385:A1 0
*END

*D_NET *1269 0.000000

*CONN
*I *2378:A1 I *L 0.0004 *D AOI22xp33_ASAP7_75t_L
*I *2099:dataout[15] O *L 0.0000 *D srambank_256x4x32_6t122

*CAP
1 *2378:A1 0

*RES
1 *2099:dataout[15] *2378:A1 0
*END

*D_NET *1270 0.000000

*CONN
*I *2374:A1 I *L 0.0004 *D AOI22xp33_ASAP7_75t_L
*I *2099:dataout[16] O *L 0.0000 *D srambank_256x4x32_6t122

*CAP
1 *2374:A1 0

*RES
1 *2099:dataout[16] *2374:A1 0
*END

*D_NET *1271 0.000000

*CONN
*I *2361:A1 I *L 0.0004 *D AOI22xp33_ASAP7_75t_L
*I *2099:dataout[17] O *L 0.0000 *D srambank_256x4x32_6t122

*CAP
1 *2361:A1 0

*RES
1 *2099:dataout[17] *2361:A1 0
*END

*D_NET *1272 0.000000

*CONN
*I *2350:A1 I *L 0.0004 *D AOI22xp33_ASAP7_75t_L
*I *2099:dataout[18] O *L 0.0000 *D srambank_256x4x32_6t122

*CAP
1 *2350:A1 0

*RES
1 *2099:dataout[18] *2350:A1 0
*END

*D_NET *1273 0.000000

*CONN
*I *2339:A1 I *L 0.0004 *D AOI22xp33_ASAP7_75t_L
*I *2099:dataout[19] O *L 0.0000 *D srambank_256x4x32_6t122

*CAP
1 *2339:A1 0

*RES
1 *2099:dataout[19] *2339:A1 0
*END

*D_NET *1274 0.000000

*CONN
*I *2328:A1 I *L 0.0004 *D AOI22xp33_ASAP7_75t_L
*I *2099:dataout[20] O *L 0.0000 *D srambank_256x4x32_6t122

*CAP
1 *2328:A1 0

*RES
1 *2099:dataout[20] *2328:A1 0
*END

*D_NET *1275 0.000000

*CONN
*I *2315:A1 I *L 0.0004 *D AOI22xp33_ASAP7_75t_L
*I *2099:dataout[21] O *L 0.0000 *D srambank_256x4x32_6t122

*CAP
1 *2315:A1 0

*RES
1 *2099:dataout[21] *2315:A1 0
*END

*D_NET *1276 0.000000

*CONN
*I *2399:A1 I *L 0.0004 *D AOI22xp33_ASAP7_75t_L
*I *2099:dataout[22] O *L 0.0000 *D srambank_256x4x32_6t122

*CAP
1 *2399:A1 0

*RES
1 *2099:dataout[22] *2399:A1 0
*END

*D_NET *1277 0.000000

*CONN
*I *2388:A1 I *L 0.0004 *D AOI22xp33_ASAP7_75t_L
*I *2099:dataout[23] O *L 0.0000 *D srambank_256x4x32_6t122

*CAP
1 *2388:A1 0

*RES
1 *2099:dataout[23] *2388:A1 0
*END

*D_NET *1278 0.000000

*CONN
*I *2375:A1 I *L 0.0004 *D AOI22xp33_ASAP7_75t_L
*I *2099:dataout[24] O *L 0.0000 *D srambank_256x4x32_6t122

*CAP
1 *2375:A1 0

*RES
1 *2099:dataout[24] *2375:A1 0
*END

*D_NET *1279 0.000000

*CONN
*I *2353:A1 I *L 0.0004 *D AOI22xp33_ASAP7_75t_L
*I *2099:dataout[25] O *L 0.0000 *D srambank_256x4x32_6t122

*CAP
1 *2353:A1 0

*RES
1 *2099:dataout[25] *2353:A1 0
*END

*D_NET *1280 0.000000

*CONN
*I *2329:A1 I *L 0.0004 *D AOI22xp33_ASAP7_75t_L
*I *2099:dataout[26] O *L 0.0000 *D srambank_256x4x32_6t122

*CAP
1 *2329:A1 0

*RES
1 *2099:dataout[26] *2329:A1 0
*END

*D_NET *1281 0.000000

*CONN
*I *2402:A1 I *L 0.0004 *D AOI22xp33_ASAP7_75t_L
*I *2099:dataout[27] O *L 0.0000 *D srambank_256x4x32_6t122

*CAP
1 *2402:A1 0

*RES
1 *2099:dataout[27] *2402:A1 0
*END

*D_NET *1282 0.000000

*CONN
*I *2379:A1 I *L 0.0004 *D AOI22xp33_ASAP7_75t_L
*I *2099:dataout[28] O *L 0.0000 *D srambank_256x4x32_6t122

*CAP
1 *2379:A1 0

*RES
1 *2099:dataout[28] *2379:A1 0
*END

*D_NET *1283 0.000000

*CONN
*I *2343:A1 I *L 0.0004 *D AOI22xp33_ASAP7_75t_L
*I *2099:dataout[29] O *L 0.0000 *D srambank_256x4x32_6t122

*CAP
1 *2343:A1 0

*RES
1 *2099:dataout[29] *2343:A1 0
*END

*D_NET *1284 0.000000

*CONN
*I *2381:A1 I *L 0.0004 *D AOI22xp33_ASAP7_75t_L
*I *2099:dataout[30] O *L 0.0000 *D srambank_256x4x32_6t122

*CAP
1 *2381:A1 0

*RES
1 *2099:dataout[30] *2381:A1 0
*END

*D_NET *1285 0.000000

*CONN
*I *2387:A1 I *L 0.0004 *D AOI22xp33_ASAP7_75t_L
*I *2099:dataout[31] O *L 0.0000 *D srambank_256x4x32_6t122

*CAP
1 *2387:A1 0

*RES
1 *2099:dataout[31] *2387:A1 0
*END

*D_NET *1286 0.000000

*CONN
*I *2370:B1 I *L 0.0004 *D AOI22xp33_ASAP7_75t_L
*I *2100:dataout[0] O *L 0.0000 *D srambank_256x4x32_6t122

*CAP
1 *2370:B1 0

*RES
1 *2100:dataout[0] *2370:B1 0
*END

*D_NET *1287 0.000000

*CONN
*I *2365:B1 I *L 0.0004 *D AOI22xp33_ASAP7_75t_L
*I *2100:dataout[1] O *L 0.0000 *D srambank_256x4x32_6t122

*CAP
1 *2365:B1 0

*RES
1 *2100:dataout[1] *2365:B1 0
*END

*D_NET *1288 0.000000

*CONN
*I *2358:B1 I *L 0.0004 *D AOI22xp33_ASAP7_75t_L
*I *2100:dataout[2] O *L 0.0000 *D srambank_256x4x32_6t122

*CAP
1 *2358:B1 0

*RES
1 *2100:dataout[2] *2358:B1 0
*END

*D_NET *1289 0.000000

*CONN
*I *2355:B1 I *L 0.0004 *D AOI22xp33_ASAP7_75t_L
*I *2100:dataout[3] O *L 0.0000 *D srambank_256x4x32_6t122

*CAP
1 *2355:B1 0

*RES
1 *2100:dataout[3] *2355:B1 0
*END

*D_NET *1290 0.000000

*CONN
*I *2348:B1 I *L 0.0004 *D AOI22xp33_ASAP7_75t_L
*I *2100:dataout[4] O *L 0.0000 *D srambank_256x4x32_6t122

*CAP
1 *2348:B1 0

*RES
1 *2100:dataout[4] *2348:B1 0
*END

*D_NET *1291 0.000000

*CONN
*I *2342:B1 I *L 0.0004 *D AOI22xp33_ASAP7_75t_L
*I *2100:dataout[5] O *L 0.0000 *D srambank_256x4x32_6t122

*CAP
1 *2342:B1 0

*RES
1 *2100:dataout[5] *2342:B1 0
*END

*D_NET *1292 0.000000

*CONN
*I *2335:B1 I *L 0.0004 *D AOI22xp33_ASAP7_75t_L
*I *2100:dataout[6] O *L 0.0000 *D srambank_256x4x32_6t122

*CAP
1 *2335:B1 0

*RES
1 *2100:dataout[6] *2335:B1 0
*END

*D_NET *1293 0.000000

*CONN
*I *2332:B1 I *L 0.0004 *D AOI22xp33_ASAP7_75t_L
*I *2100:dataout[7] O *L 0.0000 *D srambank_256x4x32_6t122

*CAP
1 *2332:B1 0

*RES
1 *2100:dataout[7] *2332:B1 0
*END

*D_NET *1294 0.000000

*CONN
*I *2325:B1 I *L 0.0004 *D AOI22xp33_ASAP7_75t_L
*I *2100:dataout[8] O *L 0.0000 *D srambank_256x4x32_6t122

*CAP
1 *2325:B1 0

*RES
1 *2100:dataout[8] *2325:B1 0
*END

*D_NET *1295 0.000000

*CONN
*I *2319:B1 I *L 0.0004 *D AOI22xp33_ASAP7_75t_L
*I *2100:dataout[9] O *L 0.0000 *D srambank_256x4x32_6t122

*CAP
1 *2319:B1 0

*RES
1 *2100:dataout[9] *2319:B1 0
*END

*D_NET *1296 0.000000

*CONN
*I *2312:B1 I *L 0.0004 *D AOI22xp33_ASAP7_75t_L
*I *2100:dataout[10] O *L 0.0000 *D srambank_256x4x32_6t122

*CAP
1 *2312:B1 0

*RES
1 *2100:dataout[10] *2312:B1 0
*END

*D_NET *1297 0.000000

*CONN
*I *2403:B1 I *L 0.0004 *D AOI22xp33_ASAP7_75t_L
*I *2100:dataout[11] O *L 0.0000 *D srambank_256x4x32_6t122

*CAP
1 *2403:B1 0

*RES
1 *2100:dataout[11] *2403:B1 0
*END

*D_NET *1298 0.000000

*CONN
*I *2397:B1 I *L 0.0004 *D AOI22xp33_ASAP7_75t_L
*I *2100:dataout[12] O *L 0.0000 *D srambank_256x4x32_6t122

*CAP
1 *2397:B1 0

*RES
1 *2100:dataout[12] *2397:B1 0
*END

*D_NET *1299 0.000000

*CONN
*I *2392:B1 I *L 0.0004 *D AOI22xp33_ASAP7_75t_L
*I *2100:dataout[13] O *L 0.0000 *D srambank_256x4x32_6t122

*CAP
1 *2392:B1 0

*RES
1 *2100:dataout[13] *2392:B1 0
*END

*D_NET *1300 0.000000

*CONN
*I *2385:B1 I *L 0.0004 *D AOI22xp33_ASAP7_75t_L
*I *2100:dataout[14] O *L 0.0000 *D srambank_256x4x32_6t122

*CAP
1 *2385:B1 0

*RES
1 *2100:dataout[14] *2385:B1 0
*END

*D_NET *1301 0.000000

*CONN
*I *2378:B1 I *L 0.0004 *D AOI22xp33_ASAP7_75t_L
*I *2100:dataout[15] O *L 0.0000 *D srambank_256x4x32_6t122

*CAP
1 *2378:B1 0

*RES
1 *2100:dataout[15] *2378:B1 0
*END

*D_NET *1302 0.000000

*CONN
*I *2374:B1 I *L 0.0004 *D AOI22xp33_ASAP7_75t_L
*I *2100:dataout[16] O *L 0.0000 *D srambank_256x4x32_6t122

*CAP
1 *2374:B1 0

*RES
1 *2100:dataout[16] *2374:B1 0
*END

*D_NET *1303 0.000000

*CONN
*I *2361:B1 I *L 0.0004 *D AOI22xp33_ASAP7_75t_L
*I *2100:dataout[17] O *L 0.0000 *D srambank_256x4x32_6t122

*CAP
1 *2361:B1 0

*RES
1 *2100:dataout[17] *2361:B1 0
*END

*D_NET *1304 0.000000

*CONN
*I *2350:B1 I *L 0.0004 *D AOI22xp33_ASAP7_75t_L
*I *2100:dataout[18] O *L 0.0000 *D srambank_256x4x32_6t122

*CAP
1 *2350:B1 0

*RES
1 *2100:dataout[18] *2350:B1 0
*END

*D_NET *1305 0.000000

*CONN
*I *2339:B1 I *L 0.0004 *D AOI22xp33_ASAP7_75t_L
*I *2100:dataout[19] O *L 0.0000 *D srambank_256x4x32_6t122

*CAP
1 *2339:B1 0

*RES
1 *2100:dataout[19] *2339:B1 0
*END

*D_NET *1306 0.000000

*CONN
*I *2328:B1 I *L 0.0004 *D AOI22xp33_ASAP7_75t_L
*I *2100:dataout[20] O *L 0.0000 *D srambank_256x4x32_6t122

*CAP
1 *2328:B1 0

*RES
1 *2100:dataout[20] *2328:B1 0
*END

*D_NET *1307 0.000000

*CONN
*I *2315:B1 I *L 0.0004 *D AOI22xp33_ASAP7_75t_L
*I *2100:dataout[21] O *L 0.0000 *D srambank_256x4x32_6t122

*CAP
1 *2315:B1 0

*RES
1 *2100:dataout[21] *2315:B1 0
*END

*D_NET *1308 0.000000

*CONN
*I *2399:B1 I *L 0.0004 *D AOI22xp33_ASAP7_75t_L
*I *2100:dataout[22] O *L 0.0000 *D srambank_256x4x32_6t122

*CAP
1 *2399:B1 0

*RES
1 *2100:dataout[22] *2399:B1 0
*END

*D_NET *1309 0.000000

*CONN
*I *2388:B1 I *L 0.0004 *D AOI22xp33_ASAP7_75t_L
*I *2100:dataout[23] O *L 0.0000 *D srambank_256x4x32_6t122

*CAP
1 *2388:B1 0

*RES
1 *2100:dataout[23] *2388:B1 0
*END

*D_NET *1310 0.000000

*CONN
*I *2375:B1 I *L 0.0004 *D AOI22xp33_ASAP7_75t_L
*I *2100:dataout[24] O *L 0.0000 *D srambank_256x4x32_6t122

*CAP
1 *2375:B1 0

*RES
1 *2100:dataout[24] *2375:B1 0
*END

*D_NET *1311 0.000000

*CONN
*I *2353:B1 I *L 0.0004 *D AOI22xp33_ASAP7_75t_L
*I *2100:dataout[25] O *L 0.0000 *D srambank_256x4x32_6t122

*CAP
1 *2353:B1 0

*RES
1 *2100:dataout[25] *2353:B1 0
*END

*D_NET *1312 0.000000

*CONN
*I *2329:B1 I *L 0.0004 *D AOI22xp33_ASAP7_75t_L
*I *2100:dataout[26] O *L 0.0000 *D srambank_256x4x32_6t122

*CAP
1 *2329:B1 0

*RES
1 *2100:dataout[26] *2329:B1 0
*END

*D_NET *1313 0.000000

*CONN
*I *2402:B1 I *L 0.0004 *D AOI22xp33_ASAP7_75t_L
*I *2100:dataout[27] O *L 0.0000 *D srambank_256x4x32_6t122

*CAP
1 *2402:B1 0

*RES
1 *2100:dataout[27] *2402:B1 0
*END

*D_NET *1314 0.000000

*CONN
*I *2379:B1 I *L 0.0004 *D AOI22xp33_ASAP7_75t_L
*I *2100:dataout[28] O *L 0.0000 *D srambank_256x4x32_6t122

*CAP
1 *2379:B1 0

*RES
1 *2100:dataout[28] *2379:B1 0
*END

*D_NET *1315 0.000000

*CONN
*I *2343:B1 I *L 0.0004 *D AOI22xp33_ASAP7_75t_L
*I *2100:dataout[29] O *L 0.0000 *D srambank_256x4x32_6t122

*CAP
1 *2343:B1 0

*RES
1 *2100:dataout[29] *2343:B1 0
*END

*D_NET *1316 0.000000

*CONN
*I *2381:B1 I *L 0.0004 *D AOI22xp33_ASAP7_75t_L
*I *2100:dataout[30] O *L 0.0000 *D srambank_256x4x32_6t122

*CAP
1 *2381:B1 0

*RES
1 *2100:dataout[30] *2381:B1 0
*END

*D_NET *1317 0.000000

*CONN
*I *2387:B1 I *L 0.0004 *D AOI22xp33_ASAP7_75t_L
*I *2100:dataout[31] O *L 0.0000 *D srambank_256x4x32_6t122

*CAP
1 *2387:B1 0

*RES
1 *2100:dataout[31] *2387:B1 0
*END

*D_NET *1318 0.000000

*CONN
*I *2368:A1 I *L 0.0004 *D AOI22xp33_ASAP7_75t_L
*I *2101:dataout[0] O *L 0.0000 *D srambank_256x4x32_6t122

*CAP
1 *2368:A1 0

*RES
1 *2101:dataout[0] *2368:A1 0
*END

*D_NET *1319 0.000000

*CONN
*I *2317:A1 I *L 0.0004 *D AOI22xp33_ASAP7_75t_L
*I *2101:dataout[1] O *L 0.0000 *D srambank_256x4x32_6t122

*CAP
1 *2317:A1 0

*RES
1 *2101:dataout[1] *2317:A1 0
*END

*D_NET *1320 0.000000

*CONN
*I *2360:A1 I *L 0.0004 *D AOI22xp33_ASAP7_75t_L
*I *2101:dataout[2] O *L 0.0000 *D srambank_256x4x32_6t122

*CAP
1 *2360:A1 0

*RES
1 *2101:dataout[2] *2360:A1 0
*END

*D_NET *1321 0.000000

*CONN
*I *2354:A1 I *L 0.0004 *D AOI22xp33_ASAP7_75t_L
*I *2101:dataout[3] O *L 0.0000 *D srambank_256x4x32_6t122

*CAP
1 *2354:A1 0

*RES
1 *2101:dataout[3] *2354:A1 0
*END

*D_NET *1322 0.000000

*CONN
*I *2346:A1 I *L 0.0004 *D AOI22xp33_ASAP7_75t_L
*I *2101:dataout[4] O *L 0.0000 *D srambank_256x4x32_6t122

*CAP
1 *2346:A1 0

*RES
1 *2101:dataout[4] *2346:A1 0
*END

*D_NET *1323 0.000000

*CONN
*I *2341:A1 I *L 0.0004 *D AOI22xp33_ASAP7_75t_L
*I *2101:dataout[5] O *L 0.0000 *D srambank_256x4x32_6t122

*CAP
1 *2341:A1 0

*RES
1 *2101:dataout[5] *2341:A1 0
*END

*D_NET *1324 0.000000

*CONN
*I *2337:A1 I *L 0.0004 *D AOI22xp33_ASAP7_75t_L
*I *2101:dataout[6] O *L 0.0000 *D srambank_256x4x32_6t122

*CAP
1 *2337:A1 0

*RES
1 *2101:dataout[6] *2337:A1 0
*END

*D_NET *1325 0.000000

*CONN
*I *2331:A1 I *L 0.0004 *D AOI22xp33_ASAP7_75t_L
*I *2101:dataout[7] O *L 0.0000 *D srambank_256x4x32_6t122

*CAP
1 *2331:A1 0

*RES
1 *2101:dataout[7] *2331:A1 0
*END

*D_NET *1326 0.000000

*CONN
*I *2324:A1 I *L 0.0004 *D AOI22xp33_ASAP7_75t_L
*I *2101:dataout[8] O *L 0.0000 *D srambank_256x4x32_6t122

*CAP
1 *2324:A1 0

*RES
1 *2101:dataout[8] *2324:A1 0
*END

*D_NET *1327 0.000000

*CONN
*I *2318:A1 I *L 0.0004 *D AOI22xp33_ASAP7_75t_L
*I *2101:dataout[9] O *L 0.0000 *D srambank_256x4x32_6t122

*CAP
1 *2318:A1 0

*RES
1 *2101:dataout[9] *2318:A1 0
*END

*D_NET *1328 0.000000

*CONN
*I *2311:A1 I *L 0.0004 *D AOI22xp33_ASAP7_75t_L
*I *2101:dataout[10] O *L 0.0000 *D srambank_256x4x32_6t122

*CAP
1 *2311:A1 0

*RES
1 *2101:dataout[10] *2311:A1 0
*END

*D_NET *1329 0.000000

*CONN
*I *2401:A1 I *L 0.0004 *D AOI22xp33_ASAP7_75t_L
*I *2101:dataout[11] O *L 0.0000 *D srambank_256x4x32_6t122

*CAP
1 *2401:A1 0

*RES
1 *2101:dataout[11] *2401:A1 0
*END

*D_NET *1330 0.000000

*CONN
*I *2396:A1 I *L 0.0004 *D AOI22xp33_ASAP7_75t_L
*I *2101:dataout[12] O *L 0.0000 *D srambank_256x4x32_6t122

*CAP
1 *2396:A1 0

*RES
1 *2101:dataout[12] *2396:A1 0
*END

*D_NET *1331 0.000000

*CONN
*I *2391:A1 I *L 0.0004 *D AOI22xp33_ASAP7_75t_L
*I *2101:dataout[13] O *L 0.0000 *D srambank_256x4x32_6t122

*CAP
1 *2391:A1 0

*RES
1 *2101:dataout[13] *2391:A1 0
*END

*D_NET *1332 0.000000

*CONN
*I *2383:A1 I *L 0.0004 *D AOI22xp33_ASAP7_75t_L
*I *2101:dataout[14] O *L 0.0000 *D srambank_256x4x32_6t122

*CAP
1 *2383:A1 0

*RES
1 *2101:dataout[14] *2383:A1 0
*END

*D_NET *1333 0.000000

*CONN
*I *2380:A1 I *L 0.0004 *D AOI22xp33_ASAP7_75t_L
*I *2101:dataout[15] O *L 0.0000 *D srambank_256x4x32_6t122

*CAP
1 *2380:A1 0

*RES
1 *2101:dataout[15] *2380:A1 0
*END

*D_NET *1334 0.000000

*CONN
*I *2307:A1 I *L 0.0004 *D AOI22xp33_ASAP7_75t_L
*I *2101:dataout[16] O *L 0.0000 *D srambank_256x4x32_6t122

*CAP
1 *2307:A1 0

*RES
1 *2101:dataout[16] *2307:A1 0
*END

*D_NET *1335 0.000000

*CONN
*I *2359:A1 I *L 0.0004 *D AOI22xp33_ASAP7_75t_L
*I *2101:dataout[17] O *L 0.0000 *D srambank_256x4x32_6t122

*CAP
1 *2359:A1 0

*RES
1 *2101:dataout[17] *2359:A1 0
*END

*D_NET *1336 0.000000

*CONN
*I *2349:A1 I *L 0.0004 *D AOI22xp33_ASAP7_75t_L
*I *2101:dataout[18] O *L 0.0000 *D srambank_256x4x32_6t122

*CAP
1 *2349:A1 0

*RES
1 *2101:dataout[18] *2349:A1 0
*END

*D_NET *1337 0.000000

*CONN
*I *2338:A1 I *L 0.0004 *D AOI22xp33_ASAP7_75t_L
*I *2101:dataout[19] O *L 0.0000 *D srambank_256x4x32_6t122

*CAP
1 *2338:A1 0

*RES
1 *2101:dataout[19] *2338:A1 0
*END

*D_NET *1338 0.000000

*CONN
*I *2326:A1 I *L 0.0004 *D AOI22xp33_ASAP7_75t_L
*I *2101:dataout[20] O *L 0.0000 *D srambank_256x4x32_6t122

*CAP
1 *2326:A1 0

*RES
1 *2101:dataout[20] *2326:A1 0
*END

*D_NET *1339 0.000000

*CONN
*I *2313:A1 I *L 0.0004 *D AOI22xp33_ASAP7_75t_L
*I *2101:dataout[21] O *L 0.0000 *D srambank_256x4x32_6t122

*CAP
1 *2313:A1 0

*RES
1 *2101:dataout[21] *2313:A1 0
*END

*D_NET *1340 0.000000

*CONN
*I *2398:A1 I *L 0.0004 *D AOI22xp33_ASAP7_75t_L
*I *2101:dataout[22] O *L 0.0000 *D srambank_256x4x32_6t122

*CAP
1 *2398:A1 0

*RES
1 *2101:dataout[22] *2398:A1 0
*END

*D_NET *1341 0.000000

*CONN
*I *2386:A1 I *L 0.0004 *D AOI22xp33_ASAP7_75t_L
*I *2101:dataout[23] O *L 0.0000 *D srambank_256x4x32_6t122

*CAP
1 *2386:A1 0

*RES
1 *2101:dataout[23] *2386:A1 0
*END

*D_NET *1342 0.000000

*CONN
*I *2373:A1 I *L 0.0004 *D AOI22xp33_ASAP7_75t_L
*I *2101:dataout[24] O *L 0.0000 *D srambank_256x4x32_6t122

*CAP
1 *2373:A1 0

*RES
1 *2101:dataout[24] *2373:A1 0
*END

*D_NET *1343 0.000000

*CONN
*I *2351:A1 I *L 0.0004 *D AOI22xp33_ASAP7_75t_L
*I *2101:dataout[25] O *L 0.0000 *D srambank_256x4x32_6t122

*CAP
1 *2351:A1 0

*RES
1 *2101:dataout[25] *2351:A1 0
*END

*D_NET *1344 0.000000

*CONN
*I *2327:A1 I *L 0.0004 *D AOI22xp33_ASAP7_75t_L
*I *2101:dataout[26] O *L 0.0000 *D srambank_256x4x32_6t122

*CAP
1 *2327:A1 0

*RES
1 *2101:dataout[26] *2327:A1 0
*END

*D_NET *1345 0.000000

*CONN
*I *2404:A1 I *L 0.0004 *D AOI22xp33_ASAP7_75t_L
*I *2101:dataout[27] O *L 0.0000 *D srambank_256x4x32_6t122

*CAP
1 *2404:A1 0

*RES
1 *2101:dataout[27] *2404:A1 0
*END

*D_NET *1346 0.000000

*CONN
*I *2376:A1 I *L 0.0004 *D AOI22xp33_ASAP7_75t_L
*I *2101:dataout[28] O *L 0.0000 *D srambank_256x4x32_6t122

*CAP
1 *2376:A1 0

*RES
1 *2101:dataout[28] *2376:A1 0
*END

*D_NET *1347 0.000000

*CONN
*I *2336:A1 I *L 0.0004 *D AOI22xp33_ASAP7_75t_L
*I *2101:dataout[29] O *L 0.0000 *D srambank_256x4x32_6t122

*CAP
1 *2336:A1 0

*RES
1 *2101:dataout[29] *2336:A1 0
*END

*D_NET *1348 0.000000

*CONN
*I *2390:A1 I *L 0.0004 *D AOI22xp33_ASAP7_75t_L
*I *2101:dataout[30] O *L 0.0000 *D srambank_256x4x32_6t122

*CAP
1 *2390:A1 0

*RES
1 *2101:dataout[30] *2390:A1 0
*END

*D_NET *1349 0.000000

*CONN
*I *2362:A1 I *L 0.0004 *D AOI22xp33_ASAP7_75t_L
*I *2101:dataout[31] O *L 0.0000 *D srambank_256x4x32_6t122

*CAP
1 *2362:A1 0

*RES
1 *2101:dataout[31] *2362:A1 0
*END

*D_NET *1350 0.000000

*CONN
*I *2368:B1 I *L 0.0004 *D AOI22xp33_ASAP7_75t_L
*I *2102:dataout[0] O *L 0.0000 *D srambank_256x4x32_6t122

*CAP
1 *2368:B1 0

*RES
1 *2102:dataout[0] *2368:B1 0
*END

*D_NET *1351 0.000000

*CONN
*I *2317:B1 I *L 0.0004 *D AOI22xp33_ASAP7_75t_L
*I *2102:dataout[1] O *L 0.0000 *D srambank_256x4x32_6t122

*CAP
1 *2317:B1 0

*RES
1 *2102:dataout[1] *2317:B1 0
*END

*D_NET *1352 0.000000

*CONN
*I *2360:B1 I *L 0.0004 *D AOI22xp33_ASAP7_75t_L
*I *2102:dataout[2] O *L 0.0000 *D srambank_256x4x32_6t122

*CAP
1 *2360:B1 0

*RES
1 *2102:dataout[2] *2360:B1 0
*END

*D_NET *1353 0.000000

*CONN
*I *2354:B1 I *L 0.0004 *D AOI22xp33_ASAP7_75t_L
*I *2102:dataout[3] O *L 0.0000 *D srambank_256x4x32_6t122

*CAP
1 *2354:B1 0

*RES
1 *2102:dataout[3] *2354:B1 0
*END

*D_NET *1354 0.000000

*CONN
*I *2346:B1 I *L 0.0004 *D AOI22xp33_ASAP7_75t_L
*I *2102:dataout[4] O *L 0.0000 *D srambank_256x4x32_6t122

*CAP
1 *2346:B1 0

*RES
1 *2102:dataout[4] *2346:B1 0
*END

*D_NET *1355 0.000000

*CONN
*I *2341:B1 I *L 0.0004 *D AOI22xp33_ASAP7_75t_L
*I *2102:dataout[5] O *L 0.0000 *D srambank_256x4x32_6t122

*CAP
1 *2341:B1 0

*RES
1 *2102:dataout[5] *2341:B1 0
*END

*D_NET *1356 0.000000

*CONN
*I *2337:B1 I *L 0.0004 *D AOI22xp33_ASAP7_75t_L
*I *2102:dataout[6] O *L 0.0000 *D srambank_256x4x32_6t122

*CAP
1 *2337:B1 0

*RES
1 *2102:dataout[6] *2337:B1 0
*END

*D_NET *1357 0.000000

*CONN
*I *2331:B1 I *L 0.0004 *D AOI22xp33_ASAP7_75t_L
*I *2102:dataout[7] O *L 0.0000 *D srambank_256x4x32_6t122

*CAP
1 *2331:B1 0

*RES
1 *2102:dataout[7] *2331:B1 0
*END

*D_NET *1358 0.000000

*CONN
*I *2324:B1 I *L 0.0004 *D AOI22xp33_ASAP7_75t_L
*I *2102:dataout[8] O *L 0.0000 *D srambank_256x4x32_6t122

*CAP
1 *2324:B1 0

*RES
1 *2102:dataout[8] *2324:B1 0
*END

*D_NET *1359 0.000000

*CONN
*I *2318:B1 I *L 0.0004 *D AOI22xp33_ASAP7_75t_L
*I *2102:dataout[9] O *L 0.0000 *D srambank_256x4x32_6t122

*CAP
1 *2318:B1 0

*RES
1 *2102:dataout[9] *2318:B1 0
*END

*D_NET *1360 0.000000

*CONN
*I *2311:B1 I *L 0.0004 *D AOI22xp33_ASAP7_75t_L
*I *2102:dataout[10] O *L 0.0000 *D srambank_256x4x32_6t122

*CAP
1 *2311:B1 0

*RES
1 *2102:dataout[10] *2311:B1 0
*END

*D_NET *1361 0.000000

*CONN
*I *2401:B1 I *L 0.0004 *D AOI22xp33_ASAP7_75t_L
*I *2102:dataout[11] O *L 0.0000 *D srambank_256x4x32_6t122

*CAP
1 *2401:B1 0

*RES
1 *2102:dataout[11] *2401:B1 0
*END

*D_NET *1362 0.000000

*CONN
*I *2396:B1 I *L 0.0004 *D AOI22xp33_ASAP7_75t_L
*I *2102:dataout[12] O *L 0.0000 *D srambank_256x4x32_6t122

*CAP
1 *2396:B1 0

*RES
1 *2102:dataout[12] *2396:B1 0
*END

*D_NET *1363 0.000000

*CONN
*I *2391:B1 I *L 0.0004 *D AOI22xp33_ASAP7_75t_L
*I *2102:dataout[13] O *L 0.0000 *D srambank_256x4x32_6t122

*CAP
1 *2391:B1 0

*RES
1 *2102:dataout[13] *2391:B1 0
*END

*D_NET *1364 0.000000

*CONN
*I *2383:B1 I *L 0.0004 *D AOI22xp33_ASAP7_75t_L
*I *2102:dataout[14] O *L 0.0000 *D srambank_256x4x32_6t122

*CAP
1 *2383:B1 0

*RES
1 *2102:dataout[14] *2383:B1 0
*END

*D_NET *1365 0.000000

*CONN
*I *2380:B1 I *L 0.0004 *D AOI22xp33_ASAP7_75t_L
*I *2102:dataout[15] O *L 0.0000 *D srambank_256x4x32_6t122

*CAP
1 *2380:B1 0

*RES
1 *2102:dataout[15] *2380:B1 0
*END

*D_NET *1366 0.000000

*CONN
*I *2307:B1 I *L 0.0004 *D AOI22xp33_ASAP7_75t_L
*I *2102:dataout[16] O *L 0.0000 *D srambank_256x4x32_6t122

*CAP
1 *2307:B1 0

*RES
1 *2102:dataout[16] *2307:B1 0
*END

*D_NET *1367 0.000000

*CONN
*I *2359:B1 I *L 0.0004 *D AOI22xp33_ASAP7_75t_L
*I *2102:dataout[17] O *L 0.0000 *D srambank_256x4x32_6t122

*CAP
1 *2359:B1 0

*RES
1 *2102:dataout[17] *2359:B1 0
*END

*D_NET *1368 0.000000

*CONN
*I *2349:B1 I *L 0.0004 *D AOI22xp33_ASAP7_75t_L
*I *2102:dataout[18] O *L 0.0000 *D srambank_256x4x32_6t122

*CAP
1 *2349:B1 0

*RES
1 *2102:dataout[18] *2349:B1 0
*END

*D_NET *1369 0.000000

*CONN
*I *2338:B1 I *L 0.0004 *D AOI22xp33_ASAP7_75t_L
*I *2102:dataout[19] O *L 0.0000 *D srambank_256x4x32_6t122

*CAP
1 *2338:B1 0

*RES
1 *2102:dataout[19] *2338:B1 0
*END

*D_NET *1370 0.000000

*CONN
*I *2326:B1 I *L 0.0004 *D AOI22xp33_ASAP7_75t_L
*I *2102:dataout[20] O *L 0.0000 *D srambank_256x4x32_6t122

*CAP
1 *2326:B1 0

*RES
1 *2102:dataout[20] *2326:B1 0
*END

*D_NET *1371 0.000000

*CONN
*I *2313:B1 I *L 0.0004 *D AOI22xp33_ASAP7_75t_L
*I *2102:dataout[21] O *L 0.0000 *D srambank_256x4x32_6t122

*CAP
1 *2313:B1 0

*RES
1 *2102:dataout[21] *2313:B1 0
*END

*D_NET *1372 0.000000

*CONN
*I *2398:B1 I *L 0.0004 *D AOI22xp33_ASAP7_75t_L
*I *2102:dataout[22] O *L 0.0000 *D srambank_256x4x32_6t122

*CAP
1 *2398:B1 0

*RES
1 *2102:dataout[22] *2398:B1 0
*END

*D_NET *1373 0.000000

*CONN
*I *2386:B1 I *L 0.0004 *D AOI22xp33_ASAP7_75t_L
*I *2102:dataout[23] O *L 0.0000 *D srambank_256x4x32_6t122

*CAP
1 *2386:B1 0

*RES
1 *2102:dataout[23] *2386:B1 0
*END

*D_NET *1374 0.000000

*CONN
*I *2373:B1 I *L 0.0004 *D AOI22xp33_ASAP7_75t_L
*I *2102:dataout[24] O *L 0.0000 *D srambank_256x4x32_6t122

*CAP
1 *2373:B1 0

*RES
1 *2102:dataout[24] *2373:B1 0
*END

*D_NET *1375 0.000000

*CONN
*I *2351:B1 I *L 0.0004 *D AOI22xp33_ASAP7_75t_L
*I *2102:dataout[25] O *L 0.0000 *D srambank_256x4x32_6t122

*CAP
1 *2351:B1 0

*RES
1 *2102:dataout[25] *2351:B1 0
*END

*D_NET *1376 0.000000

*CONN
*I *2327:B1 I *L 0.0004 *D AOI22xp33_ASAP7_75t_L
*I *2102:dataout[26] O *L 0.0000 *D srambank_256x4x32_6t122

*CAP
1 *2327:B1 0

*RES
1 *2102:dataout[26] *2327:B1 0
*END

*D_NET *1377 0.000000

*CONN
*I *2404:B1 I *L 0.0004 *D AOI22xp33_ASAP7_75t_L
*I *2102:dataout[27] O *L 0.0000 *D srambank_256x4x32_6t122

*CAP
1 *2404:B1 0

*RES
1 *2102:dataout[27] *2404:B1 0
*END

*D_NET *1378 0.000000

*CONN
*I *2376:B1 I *L 0.0004 *D AOI22xp33_ASAP7_75t_L
*I *2102:dataout[28] O *L 0.0000 *D srambank_256x4x32_6t122

*CAP
1 *2376:B1 0

*RES
1 *2102:dataout[28] *2376:B1 0
*END

*D_NET *1379 0.000000

*CONN
*I *2336:B1 I *L 0.0004 *D AOI22xp33_ASAP7_75t_L
*I *2102:dataout[29] O *L 0.0000 *D srambank_256x4x32_6t122

*CAP
1 *2336:B1 0

*RES
1 *2102:dataout[29] *2336:B1 0
*END

*D_NET *1380 0.000000

*CONN
*I *2390:B1 I *L 0.0004 *D AOI22xp33_ASAP7_75t_L
*I *2102:dataout[30] O *L 0.0000 *D srambank_256x4x32_6t122

*CAP
1 *2390:B1 0

*RES
1 *2102:dataout[30] *2390:B1 0
*END

*D_NET *1381 0.000000

*CONN
*I *2362:B1 I *L 0.0004 *D AOI22xp33_ASAP7_75t_L
*I *2102:dataout[31] O *L 0.0000 *D srambank_256x4x32_6t122

*CAP
1 *2362:B1 0

*RES
1 *2102:dataout[31] *2362:B1 0
*END

*D_NET *1382 0.000000

*CONN
*I *2221:A1 I *L 0.0004 *D AOI22xp33_ASAP7_75t_L
*I *2103:dataout[0] O *L 0.0000 *D srambank_256x4x32_6t122

*CAP
1 *2221:A1 0

*RES
1 *2103:dataout[0] *2221:A1 0
*END

*D_NET *1383 0.000000

*CONN
*I *2217:A1 I *L 0.0004 *D AOI22xp33_ASAP7_75t_L
*I *2103:dataout[1] O *L 0.0000 *D srambank_256x4x32_6t122

*CAP
1 *2217:A1 0

*RES
1 *2103:dataout[1] *2217:A1 0
*END

*D_NET *1384 0.000000

*CONN
*I *2213:A1 I *L 0.0004 *D AOI22xp33_ASAP7_75t_L
*I *2103:dataout[2] O *L 0.0000 *D srambank_256x4x32_6t122

*CAP
1 *2213:A1 0

*RES
1 *2103:dataout[2] *2213:A1 0
*END

*D_NET *1385 0.000000

*CONN
*I *2208:A1 I *L 0.0004 *D AOI22xp33_ASAP7_75t_L
*I *2103:dataout[3] O *L 0.0000 *D srambank_256x4x32_6t122

*CAP
1 *2208:A1 0

*RES
1 *2103:dataout[3] *2208:A1 0
*END

*D_NET *1386 0.000000

*CONN
*I *2205:A1 I *L 0.0004 *D AOI22xp33_ASAP7_75t_L
*I *2103:dataout[4] O *L 0.0000 *D srambank_256x4x32_6t122

*CAP
1 *2205:A1 0

*RES
1 *2103:dataout[4] *2205:A1 0
*END

*D_NET *1387 0.000000

*CONN
*I *2203:A1 I *L 0.0004 *D AOI22xp33_ASAP7_75t_L
*I *2103:dataout[5] O *L 0.0000 *D srambank_256x4x32_6t122

*CAP
1 *2203:A1 0

*RES
1 *2103:dataout[5] *2203:A1 0
*END

*D_NET *1388 0.000000

*CONN
*I *2196:A1 I *L 0.0004 *D AOI22xp33_ASAP7_75t_L
*I *2103:dataout[6] O *L 0.0000 *D srambank_256x4x32_6t122

*CAP
1 *2196:A1 0

*RES
1 *2103:dataout[6] *2196:A1 0
*END

*D_NET *1389 0.000000

*CONN
*I *2191:A1 I *L 0.0004 *D AOI22xp33_ASAP7_75t_L
*I *2103:dataout[7] O *L 0.0000 *D srambank_256x4x32_6t122

*CAP
1 *2191:A1 0

*RES
1 *2103:dataout[7] *2191:A1 0
*END

*D_NET *1390 0.000000

*CONN
*I *2189:A1 I *L 0.0004 *D AOI22xp33_ASAP7_75t_L
*I *2103:dataout[8] O *L 0.0000 *D srambank_256x4x32_6t122

*CAP
1 *2189:A1 0

*RES
1 *2103:dataout[8] *2189:A1 0
*END

*D_NET *1391 0.000000

*CONN
*I *2185:A1 I *L 0.0004 *D AOI22xp33_ASAP7_75t_L
*I *2103:dataout[9] O *L 0.0000 *D srambank_256x4x32_6t122

*CAP
1 *2185:A1 0

*RES
1 *2103:dataout[9] *2185:A1 0
*END

*D_NET *1392 0.000000

*CONN
*I *2182:A1 I *L 0.0004 *D AOI22xp33_ASAP7_75t_L
*I *2103:dataout[10] O *L 0.0000 *D srambank_256x4x32_6t122

*CAP
1 *2182:A1 0

*RES
1 *2103:dataout[10] *2182:A1 0
*END

*D_NET *1393 0.000000

*CONN
*I *2177:A1 I *L 0.0004 *D AOI22xp33_ASAP7_75t_L
*I *2103:dataout[11] O *L 0.0000 *D srambank_256x4x32_6t122

*CAP
1 *2177:A1 0

*RES
1 *2103:dataout[11] *2177:A1 0
*END

*D_NET *1394 0.000000

*CONN
*I *2236:A1 I *L 0.0004 *D AOI22xp33_ASAP7_75t_L
*I *2103:dataout[12] O *L 0.0000 *D srambank_256x4x32_6t122

*CAP
1 *2236:A1 0

*RES
1 *2103:dataout[12] *2236:A1 0
*END

*D_NET *1395 0.000000

*CONN
*I *2233:A1 I *L 0.0004 *D AOI22xp33_ASAP7_75t_L
*I *2103:dataout[13] O *L 0.0000 *D srambank_256x4x32_6t122

*CAP
1 *2233:A1 0

*RES
1 *2103:dataout[13] *2233:A1 0
*END

*D_NET *1396 0.000000

*CONN
*I *2229:A1 I *L 0.0004 *D AOI22xp33_ASAP7_75t_L
*I *2103:dataout[14] O *L 0.0000 *D srambank_256x4x32_6t122

*CAP
1 *2229:A1 0

*RES
1 *2103:dataout[14] *2229:A1 0
*END

*D_NET *1397 0.000000

*CONN
*I *2224:A1 I *L 0.0004 *D AOI22xp33_ASAP7_75t_L
*I *2103:dataout[15] O *L 0.0000 *D srambank_256x4x32_6t122

*CAP
1 *2224:A1 0

*RES
1 *2103:dataout[15] *2224:A1 0
*END

*D_NET *1398 0.000000

*CONN
*I *2220:A1 I *L 0.0004 *D AOI22xp33_ASAP7_75t_L
*I *2103:dataout[16] O *L 0.0000 *D srambank_256x4x32_6t122

*CAP
1 *2220:A1 0

*RES
1 *2103:dataout[16] *2220:A1 0
*END

*D_NET *1399 0.000000

*CONN
*I *2215:A1 I *L 0.0004 *D AOI22xp33_ASAP7_75t_L
*I *2103:dataout[17] O *L 0.0000 *D srambank_256x4x32_6t122

*CAP
1 *2215:A1 0

*RES
1 *2103:dataout[17] *2215:A1 0
*END

*D_NET *1400 0.000000

*CONN
*I *2207:A1 I *L 0.0004 *D AOI22xp33_ASAP7_75t_L
*I *2103:dataout[18] O *L 0.0000 *D srambank_256x4x32_6t122

*CAP
1 *2207:A1 0

*RES
1 *2103:dataout[18] *2207:A1 0
*END

*D_NET *1401 0.000000

*CONN
*I *2197:A1 I *L 0.0004 *D AOI22xp33_ASAP7_75t_L
*I *2103:dataout[19] O *L 0.0000 *D srambank_256x4x32_6t122

*CAP
1 *2197:A1 0

*RES
1 *2103:dataout[19] *2197:A1 0
*END

*D_NET *1402 0.000000

*CONN
*I *2188:A1 I *L 0.0004 *D AOI22xp33_ASAP7_75t_L
*I *2103:dataout[20] O *L 0.0000 *D srambank_256x4x32_6t122

*CAP
1 *2188:A1 0

*RES
1 *2103:dataout[20] *2188:A1 0
*END

*D_NET *1403 0.000000

*CONN
*I *2181:A1 I *L 0.0004 *D AOI22xp33_ASAP7_75t_L
*I *2103:dataout[21] O *L 0.0000 *D srambank_256x4x32_6t122

*CAP
1 *2181:A1 0

*RES
1 *2103:dataout[21] *2181:A1 0
*END

*D_NET *1404 0.000000

*CONN
*I *2237:A1 I *L 0.0004 *D AOI22xp33_ASAP7_75t_L
*I *2103:dataout[22] O *L 0.0000 *D srambank_256x4x32_6t122

*CAP
1 *2237:A1 0

*RES
1 *2103:dataout[22] *2237:A1 0
*END

*D_NET *1405 0.000000

*CONN
*I *2230:A1 I *L 0.0004 *D AOI22xp33_ASAP7_75t_L
*I *2103:dataout[23] O *L 0.0000 *D srambank_256x4x32_6t122

*CAP
1 *2230:A1 0

*RES
1 *2103:dataout[23] *2230:A1 0
*END

*D_NET *1406 0.000000

*CONN
*I *2222:A1 I *L 0.0004 *D AOI22xp33_ASAP7_75t_L
*I *2103:dataout[24] O *L 0.0000 *D srambank_256x4x32_6t122

*CAP
1 *2222:A1 0

*RES
1 *2103:dataout[24] *2222:A1 0
*END

*D_NET *1407 0.000000

*CONN
*I *2212:A1 I *L 0.0004 *D AOI22xp33_ASAP7_75t_L
*I *2103:dataout[25] O *L 0.0000 *D srambank_256x4x32_6t122

*CAP
1 *2212:A1 0

*RES
1 *2103:dataout[25] *2212:A1 0
*END

*D_NET *1408 0.000000

*CONN
*I *2194:A1 I *L 0.0004 *D AOI22xp33_ASAP7_75t_L
*I *2103:dataout[26] O *L 0.0000 *D srambank_256x4x32_6t122

*CAP
1 *2194:A1 0

*RES
1 *2103:dataout[26] *2194:A1 0
*END

*D_NET *1409 0.000000

*CONN
*I *2239:A1 I *L 0.0004 *D AOI22xp33_ASAP7_75t_L
*I *2103:dataout[27] O *L 0.0000 *D srambank_256x4x32_6t122

*CAP
1 *2239:A1 0

*RES
1 *2103:dataout[27] *2239:A1 0
*END

*D_NET *1410 0.000000

*CONN
*I *2227:A1 I *L 0.0004 *D AOI22xp33_ASAP7_75t_L
*I *2103:dataout[28] O *L 0.0000 *D srambank_256x4x32_6t122

*CAP
1 *2227:A1 0

*RES
1 *2103:dataout[28] *2227:A1 0
*END

*D_NET *1411 0.000000

*CONN
*I *2192:A1 I *L 0.0004 *D AOI22xp33_ASAP7_75t_L
*I *2103:dataout[29] O *L 0.0000 *D srambank_256x4x32_6t122

*CAP
1 *2192:A1 0

*RES
1 *2103:dataout[29] *2192:A1 0
*END

*D_NET *1412 0.000000

*CONN
*I *2226:A1 I *L 0.0004 *D AOI22xp33_ASAP7_75t_L
*I *2103:dataout[30] O *L 0.0000 *D srambank_256x4x32_6t122

*CAP
1 *2226:A1 0

*RES
1 *2103:dataout[30] *2226:A1 0
*END

*D_NET *1413 0.000000

*CONN
*I *2238:A1 I *L 0.0004 *D AOI22xp33_ASAP7_75t_L
*I *2103:dataout[31] O *L 0.0000 *D srambank_256x4x32_6t122

*CAP
1 *2238:A1 0

*RES
1 *2103:dataout[31] *2238:A1 0
*END

*D_NET *1414 0.000000

*CONN
*I *2221:B1 I *L 0.0004 *D AOI22xp33_ASAP7_75t_L
*I *2104:dataout[0] O *L 0.0000 *D srambank_256x4x32_6t122

*CAP
1 *2221:B1 0

*RES
1 *2104:dataout[0] *2221:B1 0
*END

*D_NET *1415 0.000000

*CONN
*I *2217:B1 I *L 0.0004 *D AOI22xp33_ASAP7_75t_L
*I *2104:dataout[1] O *L 0.0000 *D srambank_256x4x32_6t122

*CAP
1 *2217:B1 0

*RES
1 *2104:dataout[1] *2217:B1 0
*END

*D_NET *1416 0.000000

*CONN
*I *2213:B1 I *L 0.0004 *D AOI22xp33_ASAP7_75t_L
*I *2104:dataout[2] O *L 0.0000 *D srambank_256x4x32_6t122

*CAP
1 *2213:B1 0

*RES
1 *2104:dataout[2] *2213:B1 0
*END

*D_NET *1417 0.000000

*CONN
*I *2208:B1 I *L 0.0004 *D AOI22xp33_ASAP7_75t_L
*I *2104:dataout[3] O *L 0.0000 *D srambank_256x4x32_6t122

*CAP
1 *2208:B1 0

*RES
1 *2104:dataout[3] *2208:B1 0
*END

*D_NET *1418 0.000000

*CONN
*I *2205:B1 I *L 0.0004 *D AOI22xp33_ASAP7_75t_L
*I *2104:dataout[4] O *L 0.0000 *D srambank_256x4x32_6t122

*CAP
1 *2205:B1 0

*RES
1 *2104:dataout[4] *2205:B1 0
*END

*D_NET *1419 0.000000

*CONN
*I *2203:B1 I *L 0.0004 *D AOI22xp33_ASAP7_75t_L
*I *2104:dataout[5] O *L 0.0000 *D srambank_256x4x32_6t122

*CAP
1 *2203:B1 0

*RES
1 *2104:dataout[5] *2203:B1 0
*END

*D_NET *1420 0.000000

*CONN
*I *2196:B1 I *L 0.0004 *D AOI22xp33_ASAP7_75t_L
*I *2104:dataout[6] O *L 0.0000 *D srambank_256x4x32_6t122

*CAP
1 *2196:B1 0

*RES
1 *2104:dataout[6] *2196:B1 0
*END

*D_NET *1421 0.000000

*CONN
*I *2191:B1 I *L 0.0004 *D AOI22xp33_ASAP7_75t_L
*I *2104:dataout[7] O *L 0.0000 *D srambank_256x4x32_6t122

*CAP
1 *2191:B1 0

*RES
1 *2104:dataout[7] *2191:B1 0
*END

*D_NET *1422 0.000000

*CONN
*I *2189:B1 I *L 0.0004 *D AOI22xp33_ASAP7_75t_L
*I *2104:dataout[8] O *L 0.0000 *D srambank_256x4x32_6t122

*CAP
1 *2189:B1 0

*RES
1 *2104:dataout[8] *2189:B1 0
*END

*D_NET *1423 0.000000

*CONN
*I *2185:B1 I *L 0.0004 *D AOI22xp33_ASAP7_75t_L
*I *2104:dataout[9] O *L 0.0000 *D srambank_256x4x32_6t122

*CAP
1 *2185:B1 0

*RES
1 *2104:dataout[9] *2185:B1 0
*END

*D_NET *1424 0.000000

*CONN
*I *2182:B1 I *L 0.0004 *D AOI22xp33_ASAP7_75t_L
*I *2104:dataout[10] O *L 0.0000 *D srambank_256x4x32_6t122

*CAP
1 *2182:B1 0

*RES
1 *2104:dataout[10] *2182:B1 0
*END

*D_NET *1425 0.000000

*CONN
*I *2177:B1 I *L 0.0004 *D AOI22xp33_ASAP7_75t_L
*I *2104:dataout[11] O *L 0.0000 *D srambank_256x4x32_6t122

*CAP
1 *2177:B1 0

*RES
1 *2104:dataout[11] *2177:B1 0
*END

*D_NET *1426 0.000000

*CONN
*I *2236:B1 I *L 0.0004 *D AOI22xp33_ASAP7_75t_L
*I *2104:dataout[12] O *L 0.0000 *D srambank_256x4x32_6t122

*CAP
1 *2236:B1 0

*RES
1 *2104:dataout[12] *2236:B1 0
*END

*D_NET *1427 0.000000

*CONN
*I *2233:B1 I *L 0.0004 *D AOI22xp33_ASAP7_75t_L
*I *2104:dataout[13] O *L 0.0000 *D srambank_256x4x32_6t122

*CAP
1 *2233:B1 0

*RES
1 *2104:dataout[13] *2233:B1 0
*END

*D_NET *1428 0.000000

*CONN
*I *2229:B1 I *L 0.0004 *D AOI22xp33_ASAP7_75t_L
*I *2104:dataout[14] O *L 0.0000 *D srambank_256x4x32_6t122

*CAP
1 *2229:B1 0

*RES
1 *2104:dataout[14] *2229:B1 0
*END

*D_NET *1429 0.000000

*CONN
*I *2224:B1 I *L 0.0004 *D AOI22xp33_ASAP7_75t_L
*I *2104:dataout[15] O *L 0.0000 *D srambank_256x4x32_6t122

*CAP
1 *2224:B1 0

*RES
1 *2104:dataout[15] *2224:B1 0
*END

*D_NET *1430 0.000000

*CONN
*I *2220:B1 I *L 0.0004 *D AOI22xp33_ASAP7_75t_L
*I *2104:dataout[16] O *L 0.0000 *D srambank_256x4x32_6t122

*CAP
1 *2220:B1 0

*RES
1 *2104:dataout[16] *2220:B1 0
*END

*D_NET *1431 0.000000

*CONN
*I *2215:B1 I *L 0.0004 *D AOI22xp33_ASAP7_75t_L
*I *2104:dataout[17] O *L 0.0000 *D srambank_256x4x32_6t122

*CAP
1 *2215:B1 0

*RES
1 *2104:dataout[17] *2215:B1 0
*END

*D_NET *1432 0.000000

*CONN
*I *2207:B1 I *L 0.0004 *D AOI22xp33_ASAP7_75t_L
*I *2104:dataout[18] O *L 0.0000 *D srambank_256x4x32_6t122

*CAP
1 *2207:B1 0

*RES
1 *2104:dataout[18] *2207:B1 0
*END

*D_NET *1433 0.000000

*CONN
*I *2197:B1 I *L 0.0004 *D AOI22xp33_ASAP7_75t_L
*I *2104:dataout[19] O *L 0.0000 *D srambank_256x4x32_6t122

*CAP
1 *2197:B1 0

*RES
1 *2104:dataout[19] *2197:B1 0
*END

*D_NET *1434 0.000000

*CONN
*I *2188:B1 I *L 0.0004 *D AOI22xp33_ASAP7_75t_L
*I *2104:dataout[20] O *L 0.0000 *D srambank_256x4x32_6t122

*CAP
1 *2188:B1 0

*RES
1 *2104:dataout[20] *2188:B1 0
*END

*D_NET *1435 0.000000

*CONN
*I *2181:B1 I *L 0.0004 *D AOI22xp33_ASAP7_75t_L
*I *2104:dataout[21] O *L 0.0000 *D srambank_256x4x32_6t122

*CAP
1 *2181:B1 0

*RES
1 *2104:dataout[21] *2181:B1 0
*END

*D_NET *1436 0.000000

*CONN
*I *2237:B1 I *L 0.0004 *D AOI22xp33_ASAP7_75t_L
*I *2104:dataout[22] O *L 0.0000 *D srambank_256x4x32_6t122

*CAP
1 *2237:B1 0

*RES
1 *2104:dataout[22] *2237:B1 0
*END

*D_NET *1437 0.000000

*CONN
*I *2230:B1 I *L 0.0004 *D AOI22xp33_ASAP7_75t_L
*I *2104:dataout[23] O *L 0.0000 *D srambank_256x4x32_6t122

*CAP
1 *2230:B1 0

*RES
1 *2104:dataout[23] *2230:B1 0
*END

*D_NET *1438 0.000000

*CONN
*I *2222:B1 I *L 0.0004 *D AOI22xp33_ASAP7_75t_L
*I *2104:dataout[24] O *L 0.0000 *D srambank_256x4x32_6t122

*CAP
1 *2222:B1 0

*RES
1 *2104:dataout[24] *2222:B1 0
*END

*D_NET *1439 0.000000

*CONN
*I *2212:B1 I *L 0.0004 *D AOI22xp33_ASAP7_75t_L
*I *2104:dataout[25] O *L 0.0000 *D srambank_256x4x32_6t122

*CAP
1 *2212:B1 0

*RES
1 *2104:dataout[25] *2212:B1 0
*END

*D_NET *1440 0.000000

*CONN
*I *2194:B1 I *L 0.0004 *D AOI22xp33_ASAP7_75t_L
*I *2104:dataout[26] O *L 0.0000 *D srambank_256x4x32_6t122

*CAP
1 *2194:B1 0

*RES
1 *2104:dataout[26] *2194:B1 0
*END

*D_NET *1441 0.000000

*CONN
*I *2239:B1 I *L 0.0004 *D AOI22xp33_ASAP7_75t_L
*I *2104:dataout[27] O *L 0.0000 *D srambank_256x4x32_6t122

*CAP
1 *2239:B1 0

*RES
1 *2104:dataout[27] *2239:B1 0
*END

*D_NET *1442 0.000000

*CONN
*I *2227:B1 I *L 0.0004 *D AOI22xp33_ASAP7_75t_L
*I *2104:dataout[28] O *L 0.0000 *D srambank_256x4x32_6t122

*CAP
1 *2227:B1 0

*RES
1 *2104:dataout[28] *2227:B1 0
*END

*D_NET *1443 0.000000

*CONN
*I *2192:B1 I *L 0.0004 *D AOI22xp33_ASAP7_75t_L
*I *2104:dataout[29] O *L 0.0000 *D srambank_256x4x32_6t122

*CAP
1 *2192:B1 0

*RES
1 *2104:dataout[29] *2192:B1 0
*END

*D_NET *1444 0.000000

*CONN
*I *2226:B1 I *L 0.0004 *D AOI22xp33_ASAP7_75t_L
*I *2104:dataout[30] O *L 0.0000 *D srambank_256x4x32_6t122

*CAP
1 *2226:B1 0

*RES
1 *2104:dataout[30] *2226:B1 0
*END

*D_NET *1445 0.000000

*CONN
*I *2238:B1 I *L 0.0004 *D AOI22xp33_ASAP7_75t_L
*I *2104:dataout[31] O *L 0.0000 *D srambank_256x4x32_6t122

*CAP
1 *2238:B1 0

*RES
1 *2104:dataout[31] *2238:B1 0
*END

*D_NET *1446 0.000000

*CONN
*I *2366:A1 I *L 0.0004 *D AOI22xp33_ASAP7_75t_L
*I *2105:dataout[0] O *L 0.0000 *D srambank_256x4x32_6t122

*CAP
1 *2366:A1 0

*RES
1 *2105:dataout[0] *2366:A1 0
*END

*D_NET *1447 0.000000

*CONN
*I *2363:A1 I *L 0.0004 *D AOI22xp33_ASAP7_75t_L
*I *2105:dataout[1] O *L 0.0000 *D srambank_256x4x32_6t122

*CAP
1 *2363:A1 0

*RES
1 *2105:dataout[1] *2363:A1 0
*END

*D_NET *1448 0.000000

*CONN
*I *2356:A1 I *L 0.0004 *D AOI22xp33_ASAP7_75t_L
*I *2105:dataout[2] O *L 0.0000 *D srambank_256x4x32_6t122

*CAP
1 *2356:A1 0

*RES
1 *2105:dataout[2] *2356:A1 0
*END

*D_NET *1449 0.000000

*CONN
*I *2352:A1 I *L 0.0004 *D AOI22xp33_ASAP7_75t_L
*I *2105:dataout[3] O *L 0.0000 *D srambank_256x4x32_6t122

*CAP
1 *2352:A1 0

*RES
1 *2105:dataout[3] *2352:A1 0
*END

*D_NET *1450 0.000000

*CONN
*I *2345:A1 I *L 0.0004 *D AOI22xp33_ASAP7_75t_L
*I *2105:dataout[4] O *L 0.0000 *D srambank_256x4x32_6t122

*CAP
1 *2345:A1 0

*RES
1 *2105:dataout[4] *2345:A1 0
*END

*D_NET *1451 0.000000

*CONN
*I *2340:A1 I *L 0.0004 *D AOI22xp33_ASAP7_75t_L
*I *2105:dataout[5] O *L 0.0000 *D srambank_256x4x32_6t122

*CAP
1 *2340:A1 0

*RES
1 *2105:dataout[5] *2340:A1 0
*END

*D_NET *1452 0.000000

*CONN
*I *2334:A1 I *L 0.0004 *D AOI22xp33_ASAP7_75t_L
*I *2105:dataout[6] O *L 0.0000 *D srambank_256x4x32_6t122

*CAP
1 *2334:A1 0

*RES
1 *2105:dataout[6] *2334:A1 0
*END

*D_NET *1453 0.000000

*CONN
*I *2330:A1 I *L 0.0004 *D AOI22xp33_ASAP7_75t_L
*I *2105:dataout[7] O *L 0.0000 *D srambank_256x4x32_6t122

*CAP
1 *2330:A1 0

*RES
1 *2105:dataout[7] *2330:A1 0
*END

*D_NET *1454 0.000000

*CONN
*I *2322:A1 I *L 0.0004 *D AOI22xp33_ASAP7_75t_L
*I *2105:dataout[8] O *L 0.0000 *D srambank_256x4x32_6t122

*CAP
1 *2322:A1 0

*RES
1 *2105:dataout[8] *2322:A1 0
*END

*D_NET *1455 0.000000

*CONN
*I *2316:A1 I *L 0.0004 *D AOI22xp33_ASAP7_75t_L
*I *2105:dataout[9] O *L 0.0000 *D srambank_256x4x32_6t122

*CAP
1 *2316:A1 0

*RES
1 *2105:dataout[9] *2316:A1 0
*END

*D_NET *1456 0.000000

*CONN
*I *2310:A1 I *L 0.0004 *D AOI22xp33_ASAP7_75t_L
*I *2105:dataout[10] O *L 0.0000 *D srambank_256x4x32_6t122

*CAP
1 *2310:A1 0

*RES
1 *2105:dataout[10] *2310:A1 0
*END

*D_NET *1457 0.000000

*CONN
*I *2400:A1 I *L 0.0004 *D AOI22xp33_ASAP7_75t_L
*I *2105:dataout[11] O *L 0.0000 *D srambank_256x4x32_6t122

*CAP
1 *2400:A1 0

*RES
1 *2105:dataout[11] *2400:A1 0
*END

*D_NET *1458 0.000000

*CONN
*I *2395:A1 I *L 0.0004 *D AOI22xp33_ASAP7_75t_L
*I *2105:dataout[12] O *L 0.0000 *D srambank_256x4x32_6t122

*CAP
1 *2395:A1 0

*RES
1 *2105:dataout[12] *2395:A1 0
*END

*D_NET *1459 0.000000

*CONN
*I *2389:A1 I *L 0.0004 *D AOI22xp33_ASAP7_75t_L
*I *2105:dataout[13] O *L 0.0000 *D srambank_256x4x32_6t122

*CAP
1 *2389:A1 0

*RES
1 *2105:dataout[13] *2389:A1 0
*END

*D_NET *1460 0.000000

*CONN
*I *2382:A1 I *L 0.0004 *D AOI22xp33_ASAP7_75t_L
*I *2105:dataout[14] O *L 0.0000 *D srambank_256x4x32_6t122

*CAP
1 *2382:A1 0

*RES
1 *2105:dataout[14] *2382:A1 0
*END

*D_NET *1461 0.000000

*CONN
*I *2377:A1 I *L 0.0004 *D AOI22xp33_ASAP7_75t_L
*I *2105:dataout[15] O *L 0.0000 *D srambank_256x4x32_6t122

*CAP
1 *2377:A1 0

*RES
1 *2105:dataout[15] *2377:A1 0
*END

*D_NET *1462 0.000000

*CONN
*I *2367:A1 I *L 0.0004 *D AOI22xp33_ASAP7_75t_L
*I *2105:dataout[16] O *L 0.0000 *D srambank_256x4x32_6t122

*CAP
1 *2367:A1 0

*RES
1 *2105:dataout[16] *2367:A1 0
*END

*D_NET *1463 0.000000

*CONN
*I *2357:A1 I *L 0.0004 *D AOI22xp33_ASAP7_75t_L
*I *2105:dataout[17] O *L 0.0000 *D srambank_256x4x32_6t122

*CAP
1 *2357:A1 0

*RES
1 *2105:dataout[17] *2357:A1 0
*END

*D_NET *1464 0.000000

*CONN
*I *2344:A1 I *L 0.0004 *D AOI22xp33_ASAP7_75t_L
*I *2105:dataout[18] O *L 0.0000 *D srambank_256x4x32_6t122

*CAP
1 *2344:A1 0

*RES
1 *2105:dataout[18] *2344:A1 0
*END

*D_NET *1465 0.000000

*CONN
*I *2333:A1 I *L 0.0004 *D AOI22xp33_ASAP7_75t_L
*I *2105:dataout[19] O *L 0.0000 *D srambank_256x4x32_6t122

*CAP
1 *2333:A1 0

*RES
1 *2105:dataout[19] *2333:A1 0
*END

*D_NET *1466 0.000000

*CONN
*I *2323:A1 I *L 0.0004 *D AOI22xp33_ASAP7_75t_L
*I *2105:dataout[20] O *L 0.0000 *D srambank_256x4x32_6t122

*CAP
1 *2323:A1 0

*RES
1 *2105:dataout[20] *2323:A1 0
*END

*D_NET *1467 0.000000

*CONN
*I *2309:A1 I *L 0.0004 *D AOI22xp33_ASAP7_75t_L
*I *2105:dataout[21] O *L 0.0000 *D srambank_256x4x32_6t122

*CAP
1 *2309:A1 0

*RES
1 *2105:dataout[21] *2309:A1 0
*END

*D_NET *1468 0.000000

*CONN
*I *2394:A1 I *L 0.0004 *D AOI22xp33_ASAP7_75t_L
*I *2105:dataout[22] O *L 0.0000 *D srambank_256x4x32_6t122

*CAP
1 *2394:A1 0

*RES
1 *2105:dataout[22] *2394:A1 0
*END

*D_NET *1469 0.000000

*CONN
*I *2384:A1 I *L 0.0004 *D AOI22xp33_ASAP7_75t_L
*I *2105:dataout[23] O *L 0.0000 *D srambank_256x4x32_6t122

*CAP
1 *2384:A1 0

*RES
1 *2105:dataout[23] *2384:A1 0
*END

*D_NET *1470 0.000000

*CONN
*I *2369:A1 I *L 0.0004 *D AOI22xp33_ASAP7_75t_L
*I *2105:dataout[24] O *L 0.0000 *D srambank_256x4x32_6t122

*CAP
1 *2369:A1 0

*RES
1 *2105:dataout[24] *2369:A1 0
*END

*D_NET *1471 0.000000

*CONN
*I *2347:A1 I *L 0.0004 *D AOI22xp33_ASAP7_75t_L
*I *2105:dataout[25] O *L 0.0000 *D srambank_256x4x32_6t122

*CAP
1 *2347:A1 0

*RES
1 *2105:dataout[25] *2347:A1 0
*END

*D_NET *1472 0.000000

*CONN
*I *2320:A1 I *L 0.0004 *D AOI22xp33_ASAP7_75t_L
*I *2105:dataout[26] O *L 0.0000 *D srambank_256x4x32_6t122

*CAP
1 *2320:A1 0

*RES
1 *2105:dataout[26] *2320:A1 0
*END

*D_NET *1473 0.000000

*CONN
*I *2393:A1 I *L 0.0004 *D AOI22xp33_ASAP7_75t_L
*I *2105:dataout[27] O *L 0.0000 *D srambank_256x4x32_6t122

*CAP
1 *2393:A1 0

*RES
1 *2105:dataout[27] *2393:A1 0
*END

*D_NET *1474 0.000000

*CONN
*I *2371:A1 I *L 0.0004 *D AOI22xp33_ASAP7_75t_L
*I *2105:dataout[28] O *L 0.0000 *D srambank_256x4x32_6t122

*CAP
1 *2371:A1 0

*RES
1 *2105:dataout[28] *2371:A1 0
*END

*D_NET *1475 0.000000

*CONN
*I *2321:A1 I *L 0.0004 *D AOI22xp33_ASAP7_75t_L
*I *2105:dataout[29] O *L 0.0000 *D srambank_256x4x32_6t122

*CAP
1 *2321:A1 0

*RES
1 *2105:dataout[29] *2321:A1 0
*END

*D_NET *1476 0.000000

*CONN
*I *2364:A1 I *L 0.0004 *D AOI22xp33_ASAP7_75t_L
*I *2105:dataout[30] O *L 0.0000 *D srambank_256x4x32_6t122

*CAP
1 *2364:A1 0

*RES
1 *2105:dataout[30] *2364:A1 0
*END

*D_NET *1477 0.000000

*CONN
*I *2314:A1 I *L 0.0004 *D AOI22xp33_ASAP7_75t_L
*I *2105:dataout[31] O *L 0.0000 *D srambank_256x4x32_6t122

*CAP
1 *2314:A1 0

*RES
1 *2105:dataout[31] *2314:A1 0
*END

*D_NET *1478 0.000000

*CONN
*I *2366:B1 I *L 0.0004 *D AOI22xp33_ASAP7_75t_L
*I *2106:dataout[0] O *L 0.0000 *D srambank_256x4x32_6t122

*CAP
1 *2366:B1 0

*RES
1 *2106:dataout[0] *2366:B1 0
*END

*D_NET *1479 0.000000

*CONN
*I *2363:B1 I *L 0.0004 *D AOI22xp33_ASAP7_75t_L
*I *2106:dataout[1] O *L 0.0000 *D srambank_256x4x32_6t122

*CAP
1 *2363:B1 0

*RES
1 *2106:dataout[1] *2363:B1 0
*END

*D_NET *1480 0.000000

*CONN
*I *2356:B1 I *L 0.0004 *D AOI22xp33_ASAP7_75t_L
*I *2106:dataout[2] O *L 0.0000 *D srambank_256x4x32_6t122

*CAP
1 *2356:B1 0

*RES
1 *2106:dataout[2] *2356:B1 0
*END

*D_NET *1481 0.000000

*CONN
*I *2352:B1 I *L 0.0004 *D AOI22xp33_ASAP7_75t_L
*I *2106:dataout[3] O *L 0.0000 *D srambank_256x4x32_6t122

*CAP
1 *2352:B1 0

*RES
1 *2106:dataout[3] *2352:B1 0
*END

*D_NET *1482 0.000000

*CONN
*I *2345:B1 I *L 0.0004 *D AOI22xp33_ASAP7_75t_L
*I *2106:dataout[4] O *L 0.0000 *D srambank_256x4x32_6t122

*CAP
1 *2345:B1 0

*RES
1 *2106:dataout[4] *2345:B1 0
*END

*D_NET *1483 0.000000

*CONN
*I *2340:B1 I *L 0.0004 *D AOI22xp33_ASAP7_75t_L
*I *2106:dataout[5] O *L 0.0000 *D srambank_256x4x32_6t122

*CAP
1 *2340:B1 0

*RES
1 *2106:dataout[5] *2340:B1 0
*END

*D_NET *1484 0.000000

*CONN
*I *2334:B1 I *L 0.0004 *D AOI22xp33_ASAP7_75t_L
*I *2106:dataout[6] O *L 0.0000 *D srambank_256x4x32_6t122

*CAP
1 *2334:B1 0

*RES
1 *2106:dataout[6] *2334:B1 0
*END

*D_NET *1485 0.000000

*CONN
*I *2190:A1 I *L 0.0004 *D AOI22xp33_ASAP7_75t_L
*I *2106:dataout[7] O *L 0.0000 *D srambank_256x4x32_6t122

*CAP
1 *2190:A1 0

*RES
1 *2106:dataout[7] *2190:A1 0
*END

*D_NET *1486 0.000000

*CONN
*I *2322:B1 I *L 0.0004 *D AOI22xp33_ASAP7_75t_L
*I *2106:dataout[8] O *L 0.0000 *D srambank_256x4x32_6t122

*CAP
1 *2322:B1 0

*RES
1 *2106:dataout[8] *2322:B1 0
*END

*D_NET *1487 0.000000

*CONN
*I *2316:B1 I *L 0.0004 *D AOI22xp33_ASAP7_75t_L
*I *2106:dataout[9] O *L 0.0000 *D srambank_256x4x32_6t122

*CAP
1 *2316:B1 0

*RES
1 *2106:dataout[9] *2316:B1 0
*END

*D_NET *1488 0.000000

*CONN
*I *2310:B1 I *L 0.0004 *D AOI22xp33_ASAP7_75t_L
*I *2106:dataout[10] O *L 0.0000 *D srambank_256x4x32_6t122

*CAP
1 *2310:B1 0

*RES
1 *2106:dataout[10] *2310:B1 0
*END

*D_NET *1489 0.000000

*CONN
*I *2400:B1 I *L 0.0004 *D AOI22xp33_ASAP7_75t_L
*I *2106:dataout[11] O *L 0.0000 *D srambank_256x4x32_6t122

*CAP
1 *2400:B1 0

*RES
1 *2106:dataout[11] *2400:B1 0
*END

*D_NET *1490 0.000000

*CONN
*I *2395:B1 I *L 0.0004 *D AOI22xp33_ASAP7_75t_L
*I *2106:dataout[12] O *L 0.0000 *D srambank_256x4x32_6t122

*CAP
1 *2395:B1 0

*RES
1 *2106:dataout[12] *2395:B1 0
*END

*D_NET *1491 0.000000

*CONN
*I *2389:B1 I *L 0.0004 *D AOI22xp33_ASAP7_75t_L
*I *2106:dataout[13] O *L 0.0000 *D srambank_256x4x32_6t122

*CAP
1 *2389:B1 0

*RES
1 *2106:dataout[13] *2389:B1 0
*END

*D_NET *1492 0.000000

*CONN
*I *2382:B1 I *L 0.0004 *D AOI22xp33_ASAP7_75t_L
*I *2106:dataout[14] O *L 0.0000 *D srambank_256x4x32_6t122

*CAP
1 *2382:B1 0

*RES
1 *2106:dataout[14] *2382:B1 0
*END

*D_NET *1493 0.000000

*CONN
*I *2377:B1 I *L 0.0004 *D AOI22xp33_ASAP7_75t_L
*I *2106:dataout[15] O *L 0.0000 *D srambank_256x4x32_6t122

*CAP
1 *2377:B1 0

*RES
1 *2106:dataout[15] *2377:B1 0
*END

*D_NET *1494 0.000000

*CONN
*I *2367:B1 I *L 0.0004 *D AOI22xp33_ASAP7_75t_L
*I *2106:dataout[16] O *L 0.0000 *D srambank_256x4x32_6t122

*CAP
1 *2367:B1 0

*RES
1 *2106:dataout[16] *2367:B1 0
*END

*D_NET *1495 0.000000

*CONN
*I *2357:B1 I *L 0.0004 *D AOI22xp33_ASAP7_75t_L
*I *2106:dataout[17] O *L 0.0000 *D srambank_256x4x32_6t122

*CAP
1 *2357:B1 0

*RES
1 *2106:dataout[17] *2357:B1 0
*END

*D_NET *1496 0.000000

*CONN
*I *2344:B1 I *L 0.0004 *D AOI22xp33_ASAP7_75t_L
*I *2106:dataout[18] O *L 0.0000 *D srambank_256x4x32_6t122

*CAP
1 *2344:B1 0

*RES
1 *2106:dataout[18] *2344:B1 0
*END

*D_NET *1497 0.000000

*CONN
*I *2333:B1 I *L 0.0004 *D AOI22xp33_ASAP7_75t_L
*I *2106:dataout[19] O *L 0.0000 *D srambank_256x4x32_6t122

*CAP
1 *2333:B1 0

*RES
1 *2106:dataout[19] *2333:B1 0
*END

*D_NET *1498 0.000000

*CONN
*I *2323:B1 I *L 0.0004 *D AOI22xp33_ASAP7_75t_L
*I *2106:dataout[20] O *L 0.0000 *D srambank_256x4x32_6t122

*CAP
1 *2323:B1 0

*RES
1 *2106:dataout[20] *2323:B1 0
*END

*D_NET *1499 0.000000

*CONN
*I *2309:B1 I *L 0.0004 *D AOI22xp33_ASAP7_75t_L
*I *2106:dataout[21] O *L 0.0000 *D srambank_256x4x32_6t122

*CAP
1 *2309:B1 0

*RES
1 *2106:dataout[21] *2309:B1 0
*END

*D_NET *1500 0.000000

*CONN
*I *2235:A1 I *L 0.0004 *D AOI22xp33_ASAP7_75t_L
*I *2106:dataout[22] O *L 0.0000 *D srambank_256x4x32_6t122

*CAP
1 *2235:A1 0

*RES
1 *2106:dataout[22] *2235:A1 0
*END

*D_NET *1501 0.000000

*CONN
*I *2384:B1 I *L 0.0004 *D AOI22xp33_ASAP7_75t_L
*I *2106:dataout[23] O *L 0.0000 *D srambank_256x4x32_6t122

*CAP
1 *2384:B1 0

*RES
1 *2106:dataout[23] *2384:B1 0
*END

*D_NET *1502 0.000000

*CONN
*I *2369:B1 I *L 0.0004 *D AOI22xp33_ASAP7_75t_L
*I *2106:dataout[24] O *L 0.0000 *D srambank_256x4x32_6t122

*CAP
1 *2369:B1 0

*RES
1 *2106:dataout[24] *2369:B1 0
*END

*D_NET *1503 0.000000

*CONN
*I *2347:B1 I *L 0.0004 *D AOI22xp33_ASAP7_75t_L
*I *2106:dataout[25] O *L 0.0000 *D srambank_256x4x32_6t122

*CAP
1 *2347:B1 0

*RES
1 *2106:dataout[25] *2347:B1 0
*END

*D_NET *1504 0.000000

*CONN
*I *2320:B1 I *L 0.0004 *D AOI22xp33_ASAP7_75t_L
*I *2106:dataout[26] O *L 0.0000 *D srambank_256x4x32_6t122

*CAP
1 *2320:B1 0

*RES
1 *2106:dataout[26] *2320:B1 0
*END

*D_NET *1505 0.000000

*CONN
*I *2393:B1 I *L 0.0004 *D AOI22xp33_ASAP7_75t_L
*I *2106:dataout[27] O *L 0.0000 *D srambank_256x4x32_6t122

*CAP
1 *2393:B1 0

*RES
1 *2106:dataout[27] *2393:B1 0
*END

*D_NET *1506 0.000000

*CONN
*I *2371:B1 I *L 0.0004 *D AOI22xp33_ASAP7_75t_L
*I *2106:dataout[28] O *L 0.0000 *D srambank_256x4x32_6t122

*CAP
1 *2371:B1 0

*RES
1 *2106:dataout[28] *2371:B1 0
*END

*D_NET *1507 0.000000

*CONN
*I *2321:B1 I *L 0.0004 *D AOI22xp33_ASAP7_75t_L
*I *2106:dataout[29] O *L 0.0000 *D srambank_256x4x32_6t122

*CAP
1 *2321:B1 0

*RES
1 *2106:dataout[29] *2321:B1 0
*END

*D_NET *1508 0.000000

*CONN
*I *2364:B1 I *L 0.0004 *D AOI22xp33_ASAP7_75t_L
*I *2106:dataout[30] O *L 0.0000 *D srambank_256x4x32_6t122

*CAP
1 *2364:B1 0

*RES
1 *2106:dataout[30] *2364:B1 0
*END

*D_NET *1509 0.000000

*CONN
*I *2314:B1 I *L 0.0004 *D AOI22xp33_ASAP7_75t_L
*I *2106:dataout[31] O *L 0.0000 *D srambank_256x4x32_6t122

*CAP
1 *2314:B1 0

*RES
1 *2106:dataout[31] *2314:B1 0
*END

*D_NET *1510 0.000000

*CONN
*I *2290:A1 I *L 0.0004 *D AOI22xp33_ASAP7_75t_L
*I *2107:dataout[0] O *L 0.0000 *D srambank_256x4x32_6t122

*CAP
1 *2290:A1 0

*RES
1 *2107:dataout[0] *2290:A1 0
*END

*D_NET *1511 0.000000

*CONN
*I *2282:A1 I *L 0.0004 *D AOI22xp33_ASAP7_75t_L
*I *2107:dataout[1] O *L 0.0000 *D srambank_256x4x32_6t122

*CAP
1 *2282:A1 0

*RES
1 *2107:dataout[1] *2282:A1 0
*END

*D_NET *1512 0.000000

*CONN
*I *2279:A1 I *L 0.0004 *D AOI22xp33_ASAP7_75t_L
*I *2107:dataout[2] O *L 0.0000 *D srambank_256x4x32_6t122

*CAP
1 *2279:A1 0

*RES
1 *2107:dataout[2] *2279:A1 0
*END

*D_NET *1513 0.000000

*CONN
*I *2275:A1 I *L 0.0004 *D AOI22xp33_ASAP7_75t_L
*I *2107:dataout[3] O *L 0.0000 *D srambank_256x4x32_6t122

*CAP
1 *2275:A1 0

*RES
1 *2107:dataout[3] *2275:A1 0
*END

*D_NET *1514 0.000000

*CONN
*I *2272:A1 I *L 0.0004 *D AOI22xp33_ASAP7_75t_L
*I *2107:dataout[4] O *L 0.0000 *D srambank_256x4x32_6t122

*CAP
1 *2272:A1 0

*RES
1 *2107:dataout[4] *2272:A1 0
*END

*D_NET *1515 0.000000

*CONN
*I *2266:A1 I *L 0.0004 *D AOI22xp33_ASAP7_75t_L
*I *2107:dataout[5] O *L 0.0000 *D srambank_256x4x32_6t122

*CAP
1 *2266:A1 0

*RES
1 *2107:dataout[5] *2266:A1 0
*END

*D_NET *1516 0.000000

*CONN
*I *2262:A1 I *L 0.0004 *D AOI22xp33_ASAP7_75t_L
*I *2107:dataout[6] O *L 0.0000 *D srambank_256x4x32_6t122

*CAP
1 *2262:A1 0

*RES
1 *2107:dataout[6] *2262:A1 0
*END

*D_NET *1517 0.000000

*CONN
*I *2259:A1 I *L 0.0004 *D AOI22xp33_ASAP7_75t_L
*I *2107:dataout[7] O *L 0.0000 *D srambank_256x4x32_6t122

*CAP
1 *2259:A1 0

*RES
1 *2107:dataout[7] *2259:A1 0
*END

*D_NET *1518 0.000000

*CONN
*I *2256:A1 I *L 0.0004 *D AOI22xp33_ASAP7_75t_L
*I *2107:dataout[8] O *L 0.0000 *D srambank_256x4x32_6t122

*CAP
1 *2256:A1 0

*RES
1 *2107:dataout[8] *2256:A1 0
*END

*D_NET *1519 0.000000

*CONN
*I *2248:A1 I *L 0.0004 *D AOI22xp33_ASAP7_75t_L
*I *2107:dataout[9] O *L 0.0000 *D srambank_256x4x32_6t122

*CAP
1 *2248:A1 0

*RES
1 *2107:dataout[9] *2248:A1 0
*END

*D_NET *1520 0.000000

*CONN
*I *2246:A1 I *L 0.0004 *D AOI22xp33_ASAP7_75t_L
*I *2107:dataout[10] O *L 0.0000 *D srambank_256x4x32_6t122

*CAP
1 *2246:A1 0

*RES
1 *2107:dataout[10] *2246:A1 0
*END

*D_NET *1521 0.000000

*CONN
*I *2372:A1 I *L 0.0004 *D AOI22xp33_ASAP7_75t_L
*I *2107:dataout[11] O *L 0.0000 *D srambank_256x4x32_6t122

*CAP
1 *2372:A1 0

*RES
1 *2107:dataout[11] *2372:A1 0
*END

*D_NET *1522 0.000000

*CONN
*I *2305:A1 I *L 0.0004 *D AOI22xp33_ASAP7_75t_L
*I *2107:dataout[12] O *L 0.0000 *D srambank_256x4x32_6t122

*CAP
1 *2305:A1 0

*RES
1 *2107:dataout[12] *2305:A1 0
*END

*D_NET *1523 0.000000

*CONN
*I *2299:A1 I *L 0.0004 *D AOI22xp33_ASAP7_75t_L
*I *2107:dataout[13] O *L 0.0000 *D srambank_256x4x32_6t122

*CAP
1 *2299:A1 0

*RES
1 *2107:dataout[13] *2299:A1 0
*END

*D_NET *1524 0.000000

*CONN
*I *2295:A1 I *L 0.0004 *D AOI22xp33_ASAP7_75t_L
*I *2107:dataout[14] O *L 0.0000 *D srambank_256x4x32_6t122

*CAP
1 *2295:A1 0

*RES
1 *2107:dataout[14] *2295:A1 0
*END

*D_NET *1525 0.000000

*CONN
*I *2292:A1 I *L 0.0004 *D AOI22xp33_ASAP7_75t_L
*I *2107:dataout[15] O *L 0.0000 *D srambank_256x4x32_6t122

*CAP
1 *2292:A1 0

*RES
1 *2107:dataout[15] *2292:A1 0
*END

*D_NET *1526 0.000000

*CONN
*I *2287:A1 I *L 0.0004 *D AOI22xp33_ASAP7_75t_L
*I *2107:dataout[16] O *L 0.0000 *D srambank_256x4x32_6t122

*CAP
1 *2287:A1 0

*RES
1 *2107:dataout[16] *2287:A1 0
*END

*D_NET *1527 0.000000

*CONN
*I *2276:A1 I *L 0.0004 *D AOI22xp33_ASAP7_75t_L
*I *2107:dataout[17] O *L 0.0000 *D srambank_256x4x32_6t122

*CAP
1 *2276:A1 0

*RES
1 *2107:dataout[17] *2276:A1 0
*END

*D_NET *1528 0.000000

*CONN
*I *2271:A1 I *L 0.0004 *D AOI22xp33_ASAP7_75t_L
*I *2107:dataout[18] O *L 0.0000 *D srambank_256x4x32_6t122

*CAP
1 *2271:A1 0

*RES
1 *2107:dataout[18] *2271:A1 0
*END

*D_NET *1529 0.000000

*CONN
*I *2261:A1 I *L 0.0004 *D AOI22xp33_ASAP7_75t_L
*I *2107:dataout[19] O *L 0.0000 *D srambank_256x4x32_6t122

*CAP
1 *2261:A1 0

*RES
1 *2107:dataout[19] *2261:A1 0
*END

*D_NET *1530 0.000000

*CONN
*I *2252:A1 I *L 0.0004 *D AOI22xp33_ASAP7_75t_L
*I *2107:dataout[20] O *L 0.0000 *D srambank_256x4x32_6t122

*CAP
1 *2252:A1 0

*RES
1 *2107:dataout[20] *2252:A1 0
*END

*D_NET *1531 0.000000

*CONN
*I *2308:A1 I *L 0.0004 *D AOI22xp33_ASAP7_75t_L
*I *2107:dataout[21] O *L 0.0000 *D srambank_256x4x32_6t122

*CAP
1 *2308:A1 0

*RES
1 *2107:dataout[21] *2308:A1 0
*END

*D_NET *1532 0.000000

*CONN
*I *2303:A1 I *L 0.0004 *D AOI22xp33_ASAP7_75t_L
*I *2107:dataout[22] O *L 0.0000 *D srambank_256x4x32_6t122

*CAP
1 *2303:A1 0

*RES
1 *2107:dataout[22] *2303:A1 0
*END

*D_NET *1533 0.000000

*CONN
*I *2293:A1 I *L 0.0004 *D AOI22xp33_ASAP7_75t_L
*I *2107:dataout[23] O *L 0.0000 *D srambank_256x4x32_6t122

*CAP
1 *2293:A1 0

*RES
1 *2107:dataout[23] *2293:A1 0
*END

*D_NET *1534 0.000000

*CONN
*I *2284:A1 I *L 0.0004 *D AOI22xp33_ASAP7_75t_L
*I *2107:dataout[24] O *L 0.0000 *D srambank_256x4x32_6t122

*CAP
1 *2284:A1 0

*RES
1 *2107:dataout[24] *2284:A1 0
*END

*D_NET *1535 0.000000

*CONN
*I *2267:A1 I *L 0.0004 *D AOI22xp33_ASAP7_75t_L
*I *2107:dataout[25] O *L 0.0000 *D srambank_256x4x32_6t122

*CAP
1 *2267:A1 0

*RES
1 *2107:dataout[25] *2267:A1 0
*END

*D_NET *1536 0.000000

*CONN
*I *2255:A1 I *L 0.0004 *D AOI22xp33_ASAP7_75t_L
*I *2107:dataout[26] O *L 0.0000 *D srambank_256x4x32_6t122

*CAP
1 *2255:A1 0

*RES
1 *2107:dataout[26] *2255:A1 0
*END

*D_NET *1537 0.000000

*CONN
*I *2302:A1 I *L 0.0004 *D AOI22xp33_ASAP7_75t_L
*I *2107:dataout[27] O *L 0.0000 *D srambank_256x4x32_6t122

*CAP
1 *2302:A1 0

*RES
1 *2107:dataout[27] *2302:A1 0
*END

*D_NET *1538 0.000000

*CONN
*I *2285:A1 I *L 0.0004 *D AOI22xp33_ASAP7_75t_L
*I *2107:dataout[28] O *L 0.0000 *D srambank_256x4x32_6t122

*CAP
1 *2285:A1 0

*RES
1 *2107:dataout[28] *2285:A1 0
*END

*D_NET *1539 0.000000

*CONN
*I *2250:A1 I *L 0.0004 *D AOI22xp33_ASAP7_75t_L
*I *2107:dataout[29] O *L 0.0000 *D srambank_256x4x32_6t122

*CAP
1 *2250:A1 0

*RES
1 *2107:dataout[29] *2250:A1 0
*END

*D_NET *1540 0.000000

*CONN
*I *2283:A1 I *L 0.0004 *D AOI22xp33_ASAP7_75t_L
*I *2107:dataout[30] O *L 0.0000 *D srambank_256x4x32_6t122

*CAP
1 *2283:A1 0

*RES
1 *2107:dataout[30] *2283:A1 0
*END

*D_NET *1541 0.000000

*CONN
*I *2297:A1 I *L 0.0004 *D AOI22xp33_ASAP7_75t_L
*I *2107:dataout[31] O *L 0.0000 *D srambank_256x4x32_6t122

*CAP
1 *2297:A1 0

*RES
1 *2107:dataout[31] *2297:A1 0
*END

*D_NET *1542 0.000000

*CONN
*I *2290:B1 I *L 0.0004 *D AOI22xp33_ASAP7_75t_L
*I *2108:dataout[0] O *L 0.0000 *D srambank_256x4x32_6t122

*CAP
1 *2290:B1 0

*RES
1 *2108:dataout[0] *2290:B1 0
*END

*D_NET *1543 0.000000

*CONN
*I *2282:B1 I *L 0.0004 *D AOI22xp33_ASAP7_75t_L
*I *2108:dataout[1] O *L 0.0000 *D srambank_256x4x32_6t122

*CAP
1 *2282:B1 0

*RES
1 *2108:dataout[1] *2282:B1 0
*END

*D_NET *1544 0.000000

*CONN
*I *2279:B1 I *L 0.0004 *D AOI22xp33_ASAP7_75t_L
*I *2108:dataout[2] O *L 0.0000 *D srambank_256x4x32_6t122

*CAP
1 *2279:B1 0

*RES
1 *2108:dataout[2] *2279:B1 0
*END

*D_NET *1545 0.000000

*CONN
*I *2275:B1 I *L 0.0004 *D AOI22xp33_ASAP7_75t_L
*I *2108:dataout[3] O *L 0.0000 *D srambank_256x4x32_6t122

*CAP
1 *2275:B1 0

*RES
1 *2108:dataout[3] *2275:B1 0
*END

*D_NET *1546 0.000000

*CONN
*I *2272:B1 I *L 0.0004 *D AOI22xp33_ASAP7_75t_L
*I *2108:dataout[4] O *L 0.0000 *D srambank_256x4x32_6t122

*CAP
1 *2272:B1 0

*RES
1 *2108:dataout[4] *2272:B1 0
*END

*D_NET *1547 0.000000

*CONN
*I *2266:B1 I *L 0.0004 *D AOI22xp33_ASAP7_75t_L
*I *2108:dataout[5] O *L 0.0000 *D srambank_256x4x32_6t122

*CAP
1 *2266:B1 0

*RES
1 *2108:dataout[5] *2266:B1 0
*END

*D_NET *1548 0.000000

*CONN
*I *2262:B1 I *L 0.0004 *D AOI22xp33_ASAP7_75t_L
*I *2108:dataout[6] O *L 0.0000 *D srambank_256x4x32_6t122

*CAP
1 *2262:B1 0

*RES
1 *2108:dataout[6] *2262:B1 0
*END

*D_NET *1549 0.000000

*CONN
*I *2259:B1 I *L 0.0004 *D AOI22xp33_ASAP7_75t_L
*I *2108:dataout[7] O *L 0.0000 *D srambank_256x4x32_6t122

*CAP
1 *2259:B1 0

*RES
1 *2108:dataout[7] *2259:B1 0
*END

*D_NET *1550 0.000000

*CONN
*I *2256:B1 I *L 0.0004 *D AOI22xp33_ASAP7_75t_L
*I *2108:dataout[8] O *L 0.0000 *D srambank_256x4x32_6t122

*CAP
1 *2256:B1 0

*RES
1 *2108:dataout[8] *2256:B1 0
*END

*D_NET *1551 0.000000

*CONN
*I *2248:B1 I *L 0.0004 *D AOI22xp33_ASAP7_75t_L
*I *2108:dataout[9] O *L 0.0000 *D srambank_256x4x32_6t122

*CAP
1 *2248:B1 0

*RES
1 *2108:dataout[9] *2248:B1 0
*END

*D_NET *1552 0.000000

*CONN
*I *2244:B1 I *L 0.0004 *D AOI22xp33_ASAP7_75t_L
*I *2108:dataout[10] O *L 0.0000 *D srambank_256x4x32_6t122

*CAP
1 *2244:B1 0

*RES
1 *2108:dataout[10] *2244:B1 0
*END

*D_NET *1553 0.000000

*CONN
*I *2372:B1 I *L 0.0004 *D AOI22xp33_ASAP7_75t_L
*I *2108:dataout[11] O *L 0.0000 *D srambank_256x4x32_6t122

*CAP
1 *2372:B1 0

*RES
1 *2108:dataout[11] *2372:B1 0
*END

*D_NET *1554 0.000000

*CONN
*I *2305:B1 I *L 0.0004 *D AOI22xp33_ASAP7_75t_L
*I *2108:dataout[12] O *L 0.0000 *D srambank_256x4x32_6t122

*CAP
1 *2305:B1 0

*RES
1 *2108:dataout[12] *2305:B1 0
*END

*D_NET *1555 0.000000

*CONN
*I *2299:B1 I *L 0.0004 *D AOI22xp33_ASAP7_75t_L
*I *2108:dataout[13] O *L 0.0000 *D srambank_256x4x32_6t122

*CAP
1 *2299:B1 0

*RES
1 *2108:dataout[13] *2299:B1 0
*END

*D_NET *1556 0.000000

*CONN
*I *2295:B1 I *L 0.0004 *D AOI22xp33_ASAP7_75t_L
*I *2108:dataout[14] O *L 0.0000 *D srambank_256x4x32_6t122

*CAP
1 *2295:B1 0

*RES
1 *2108:dataout[14] *2295:B1 0
*END

*D_NET *1557 0.000000

*CONN
*I *2292:B1 I *L 0.0004 *D AOI22xp33_ASAP7_75t_L
*I *2108:dataout[15] O *L 0.0000 *D srambank_256x4x32_6t122

*CAP
1 *2292:B1 0

*RES
1 *2108:dataout[15] *2292:B1 0
*END

*D_NET *1558 0.000000

*CONN
*I *2287:B1 I *L 0.0004 *D AOI22xp33_ASAP7_75t_L
*I *2108:dataout[16] O *L 0.0000 *D srambank_256x4x32_6t122

*CAP
1 *2287:B1 0

*RES
1 *2108:dataout[16] *2287:B1 0
*END

*D_NET *1559 0.000000

*CONN
*I *2209:B1 I *L 0.0004 *D AOI22xp33_ASAP7_75t_L
*I *2108:dataout[17] O *L 0.0000 *D srambank_256x4x32_6t122

*CAP
1 *2209:B1 0

*RES
1 *2108:dataout[17] *2209:B1 0
*END

*D_NET *1560 0.000000

*CONN
*I *2271:B1 I *L 0.0004 *D AOI22xp33_ASAP7_75t_L
*I *2108:dataout[18] O *L 0.0000 *D srambank_256x4x32_6t122

*CAP
1 *2271:B1 0

*RES
1 *2108:dataout[18] *2271:B1 0
*END

*D_NET *1561 0.000000

*CONN
*I *2261:B1 I *L 0.0004 *D AOI22xp33_ASAP7_75t_L
*I *2108:dataout[19] O *L 0.0000 *D srambank_256x4x32_6t122

*CAP
1 *2261:B1 0

*RES
1 *2108:dataout[19] *2261:B1 0
*END

*D_NET *1562 0.000000

*CONN
*I *2186:B1 I *L 0.0004 *D AOI22xp33_ASAP7_75t_L
*I *2108:dataout[20] O *L 0.0000 *D srambank_256x4x32_6t122

*CAP
1 *2186:B1 0

*RES
1 *2108:dataout[20] *2186:B1 0
*END

*D_NET *1563 0.000000

*CONN
*I *2308:B1 I *L 0.0004 *D AOI22xp33_ASAP7_75t_L
*I *2108:dataout[21] O *L 0.0000 *D srambank_256x4x32_6t122

*CAP
1 *2308:B1 0

*RES
1 *2108:dataout[21] *2308:B1 0
*END

*D_NET *1564 0.000000

*CONN
*I *2303:B1 I *L 0.0004 *D AOI22xp33_ASAP7_75t_L
*I *2108:dataout[22] O *L 0.0000 *D srambank_256x4x32_6t122

*CAP
1 *2303:B1 0

*RES
1 *2108:dataout[22] *2303:B1 0
*END

*D_NET *1565 0.000000

*CONN
*I *2293:B1 I *L 0.0004 *D AOI22xp33_ASAP7_75t_L
*I *2108:dataout[23] O *L 0.0000 *D srambank_256x4x32_6t122

*CAP
1 *2293:B1 0

*RES
1 *2108:dataout[23] *2293:B1 0
*END

*D_NET *1566 0.000000

*CONN
*I *2284:B1 I *L 0.0004 *D AOI22xp33_ASAP7_75t_L
*I *2108:dataout[24] O *L 0.0000 *D srambank_256x4x32_6t122

*CAP
1 *2284:B1 0

*RES
1 *2108:dataout[24] *2284:B1 0
*END

*D_NET *1567 0.000000

*CONN
*I *2198:B1 I *L 0.0004 *D AOI22xp33_ASAP7_75t_L
*I *2108:dataout[25] O *L 0.0000 *D srambank_256x4x32_6t122

*CAP
1 *2198:B1 0

*RES
1 *2108:dataout[25] *2198:B1 0
*END

*D_NET *1568 0.000000

*CONN
*I *2255:B1 I *L 0.0004 *D AOI22xp33_ASAP7_75t_L
*I *2108:dataout[26] O *L 0.0000 *D srambank_256x4x32_6t122

*CAP
1 *2255:B1 0

*RES
1 *2108:dataout[26] *2255:B1 0
*END

*D_NET *1569 0.000000

*CONN
*I *2302:B1 I *L 0.0004 *D AOI22xp33_ASAP7_75t_L
*I *2108:dataout[27] O *L 0.0000 *D srambank_256x4x32_6t122

*CAP
1 *2302:B1 0

*RES
1 *2108:dataout[27] *2302:B1 0
*END

*D_NET *1570 0.000000

*CONN
*I *2285:B1 I *L 0.0004 *D AOI22xp33_ASAP7_75t_L
*I *2108:dataout[28] O *L 0.0000 *D srambank_256x4x32_6t122

*CAP
1 *2285:B1 0

*RES
1 *2108:dataout[28] *2285:B1 0
*END

*D_NET *1571 0.000000

*CONN
*I *2250:B1 I *L 0.0004 *D AOI22xp33_ASAP7_75t_L
*I *2108:dataout[29] O *L 0.0000 *D srambank_256x4x32_6t122

*CAP
1 *2250:B1 0

*RES
1 *2108:dataout[29] *2250:B1 0
*END

*D_NET *1572 0.000000

*CONN
*I *2283:B1 I *L 0.0004 *D AOI22xp33_ASAP7_75t_L
*I *2108:dataout[30] O *L 0.0000 *D srambank_256x4x32_6t122

*CAP
1 *2283:B1 0

*RES
1 *2108:dataout[30] *2283:B1 0
*END

*D_NET *1573 0.000000

*CONN
*I *2297:B1 I *L 0.0004 *D AOI22xp33_ASAP7_75t_L
*I *2108:dataout[31] O *L 0.0000 *D srambank_256x4x32_6t122

*CAP
1 *2297:B1 0

*RES
1 *2108:dataout[31] *2297:B1 0
*END

*D_NET *1574 0.000000

*CONN
*I *2289:A1 I *L 0.0004 *D AOI22xp33_ASAP7_75t_L
*I *2109:dataout[0] O *L 0.0000 *D srambank_256x4x32_6t122

*CAP
1 *2289:A1 0

*RES
1 *2109:dataout[0] *2289:A1 0
*END

*D_NET *1575 0.000000

*CONN
*I *2281:A1 I *L 0.0004 *D AOI22xp33_ASAP7_75t_L
*I *2109:dataout[1] O *L 0.0000 *D srambank_256x4x32_6t122

*CAP
1 *2281:A1 0

*RES
1 *2109:dataout[1] *2281:A1 0
*END

*D_NET *1576 0.000000

*CONN
*I *2278:A1 I *L 0.0004 *D AOI22xp33_ASAP7_75t_L
*I *2109:dataout[2] O *L 0.0000 *D srambank_256x4x32_6t122

*CAP
1 *2278:A1 0

*RES
1 *2109:dataout[2] *2278:A1 0
*END

*D_NET *1577 0.000000

*CONN
*I *2274:A1 I *L 0.0004 *D AOI22xp33_ASAP7_75t_L
*I *2109:dataout[3] O *L 0.0000 *D srambank_256x4x32_6t122

*CAP
1 *2274:A1 0

*RES
1 *2109:dataout[3] *2274:A1 0
*END

*D_NET *1578 0.000000

*CONN
*I *2269:A1 I *L 0.0004 *D AOI22xp33_ASAP7_75t_L
*I *2109:dataout[4] O *L 0.0000 *D srambank_256x4x32_6t122

*CAP
1 *2269:A1 0

*RES
1 *2109:dataout[4] *2269:A1 0
*END

*D_NET *1579 0.000000

*CONN
*I *2265:A1 I *L 0.0004 *D AOI22xp33_ASAP7_75t_L
*I *2109:dataout[5] O *L 0.0000 *D srambank_256x4x32_6t122

*CAP
1 *2265:A1 0

*RES
1 *2109:dataout[5] *2265:A1 0
*END

*D_NET *1580 0.000000

*CONN
*I *2263:A1 I *L 0.0004 *D AOI22xp33_ASAP7_75t_L
*I *2109:dataout[6] O *L 0.0000 *D srambank_256x4x32_6t122

*CAP
1 *2263:A1 0

*RES
1 *2109:dataout[6] *2263:A1 0
*END

*D_NET *1581 0.000000

*CONN
*I *2258:A1 I *L 0.0004 *D AOI22xp33_ASAP7_75t_L
*I *2109:dataout[7] O *L 0.0000 *D srambank_256x4x32_6t122

*CAP
1 *2258:A1 0

*RES
1 *2109:dataout[7] *2258:A1 0
*END

*D_NET *1582 0.000000

*CONN
*I *2254:A1 I *L 0.0004 *D AOI22xp33_ASAP7_75t_L
*I *2109:dataout[8] O *L 0.0000 *D srambank_256x4x32_6t122

*CAP
1 *2254:A1 0

*RES
1 *2109:dataout[8] *2254:A1 0
*END

*D_NET *1583 0.000000

*CONN
*I *2249:A1 I *L 0.0004 *D AOI22xp33_ASAP7_75t_L
*I *2109:dataout[9] O *L 0.0000 *D srambank_256x4x32_6t122

*CAP
1 *2249:A1 0

*RES
1 *2109:dataout[9] *2249:A1 0
*END

*D_NET *1584 0.000000

*CONN
*I *2247:A1 I *L 0.0004 *D AOI22xp33_ASAP7_75t_L
*I *2109:dataout[10] O *L 0.0000 *D srambank_256x4x32_6t122

*CAP
1 *2247:A1 0

*RES
1 *2109:dataout[10] *2247:A1 0
*END

*D_NET *1585 0.000000

*CONN
*I *2306:A1 I *L 0.0004 *D AOI22xp33_ASAP7_75t_L
*I *2109:dataout[11] O *L 0.0000 *D srambank_256x4x32_6t122

*CAP
1 *2306:A1 0

*RES
1 *2109:dataout[11] *2306:A1 0
*END

*D_NET *1586 0.000000

*CONN
*I *2304:A1 I *L 0.0004 *D AOI22xp33_ASAP7_75t_L
*I *2109:dataout[12] O *L 0.0000 *D srambank_256x4x32_6t122

*CAP
1 *2304:A1 0

*RES
1 *2109:dataout[12] *2304:A1 0
*END

*D_NET *1587 0.000000

*CONN
*I *2298:A1 I *L 0.0004 *D AOI22xp33_ASAP7_75t_L
*I *2109:dataout[13] O *L 0.0000 *D srambank_256x4x32_6t122

*CAP
1 *2298:A1 0

*RES
1 *2109:dataout[13] *2298:A1 0
*END

*D_NET *1588 0.000000

*CONN
*I *2294:A1 I *L 0.0004 *D AOI22xp33_ASAP7_75t_L
*I *2109:dataout[14] O *L 0.0000 *D srambank_256x4x32_6t122

*CAP
1 *2294:A1 0

*RES
1 *2109:dataout[14] *2294:A1 0
*END

*D_NET *1589 0.000000

*CONN
*I *2291:A1 I *L 0.0004 *D AOI22xp33_ASAP7_75t_L
*I *2109:dataout[15] O *L 0.0000 *D srambank_256x4x32_6t122

*CAP
1 *2291:A1 0

*RES
1 *2109:dataout[15] *2291:A1 0
*END

*D_NET *1590 0.000000

*CONN
*I *2286:A1 I *L 0.0004 *D AOI22xp33_ASAP7_75t_L
*I *2109:dataout[16] O *L 0.0000 *D srambank_256x4x32_6t122

*CAP
1 *2286:A1 0

*RES
1 *2109:dataout[16] *2286:A1 0
*END

*D_NET *1591 0.000000

*CONN
*I *2277:A1 I *L 0.0004 *D AOI22xp33_ASAP7_75t_L
*I *2109:dataout[17] O *L 0.0000 *D srambank_256x4x32_6t122

*CAP
1 *2277:A1 0

*RES
1 *2109:dataout[17] *2277:A1 0
*END

*D_NET *1592 0.000000

*CONN
*I *2270:A1 I *L 0.0004 *D AOI22xp33_ASAP7_75t_L
*I *2109:dataout[18] O *L 0.0000 *D srambank_256x4x32_6t122

*CAP
1 *2270:A1 0

*RES
1 *2109:dataout[18] *2270:A1 0
*END

*D_NET *1593 0.000000

*CONN
*I *2260:A1 I *L 0.0004 *D AOI22xp33_ASAP7_75t_L
*I *2109:dataout[19] O *L 0.0000 *D srambank_256x4x32_6t122

*CAP
1 *2260:A1 0

*RES
1 *2109:dataout[19] *2260:A1 0
*END

*D_NET *1594 0.000000

*CONN
*I *2257:A1 I *L 0.0004 *D AOI22xp33_ASAP7_75t_L
*I *2109:dataout[20] O *L 0.0000 *D srambank_256x4x32_6t122

*CAP
1 *2257:A1 0

*RES
1 *2109:dataout[20] *2257:A1 0
*END

*D_NET *1595 0.000000

*CONN
*I *2245:A1 I *L 0.0004 *D AOI22xp33_ASAP7_75t_L
*I *2109:dataout[21] O *L 0.0000 *D srambank_256x4x32_6t122

*CAP
1 *2245:A1 0

*RES
1 *2109:dataout[21] *2245:A1 0
*END

*D_NET *1596 0.000000

*CONN
*I *2300:A1 I *L 0.0004 *D AOI22xp33_ASAP7_75t_L
*I *2109:dataout[22] O *L 0.0000 *D srambank_256x4x32_6t122

*CAP
1 *2300:A1 0

*RES
1 *2109:dataout[22] *2300:A1 0
*END

*D_NET *1597 0.000000

*CONN
*I *2296:A1 I *L 0.0004 *D AOI22xp33_ASAP7_75t_L
*I *2109:dataout[23] O *L 0.0000 *D srambank_256x4x32_6t122

*CAP
1 *2296:A1 0

*RES
1 *2109:dataout[23] *2296:A1 0
*END

*D_NET *1598 0.000000

*CONN
*I *2288:A1 I *L 0.0004 *D AOI22xp33_ASAP7_75t_L
*I *2109:dataout[24] O *L 0.0000 *D srambank_256x4x32_6t122

*CAP
1 *2288:A1 0

*RES
1 *2109:dataout[24] *2288:A1 0
*END

*D_NET *1599 0.000000

*CONN
*I *2268:A1 I *L 0.0004 *D AOI22xp33_ASAP7_75t_L
*I *2109:dataout[25] O *L 0.0000 *D srambank_256x4x32_6t122

*CAP
1 *2268:A1 0

*RES
1 *2109:dataout[25] *2268:A1 0
*END

*D_NET *1600 0.000000

*CONN
*I *2251:A1 I *L 0.0004 *D AOI22xp33_ASAP7_75t_L
*I *2109:dataout[26] O *L 0.0000 *D srambank_256x4x32_6t122

*CAP
1 *2251:A1 0

*RES
1 *2109:dataout[26] *2251:A1 0
*END

*D_NET *1601 0.000000

*CONN
*I *2301:A1 I *L 0.0004 *D AOI22xp33_ASAP7_75t_L
*I *2109:dataout[27] O *L 0.0000 *D srambank_256x4x32_6t122

*CAP
1 *2301:A1 0

*RES
1 *2109:dataout[27] *2301:A1 0
*END

*D_NET *1602 0.000000

*CONN
*I *2280:A1 I *L 0.0004 *D AOI22xp33_ASAP7_75t_L
*I *2109:dataout[28] O *L 0.0000 *D srambank_256x4x32_6t122

*CAP
1 *2280:A1 0

*RES
1 *2109:dataout[28] *2280:A1 0
*END

*D_NET *1603 0.000000

*CONN
*I *2253:A1 I *L 0.0004 *D AOI22xp33_ASAP7_75t_L
*I *2109:dataout[29] O *L 0.0000 *D srambank_256x4x32_6t122

*CAP
1 *2253:A1 0

*RES
1 *2109:dataout[29] *2253:A1 0
*END

*D_NET *1604 0.000000

*CONN
*I *2273:A1 I *L 0.0004 *D AOI22xp33_ASAP7_75t_L
*I *2109:dataout[30] O *L 0.0000 *D srambank_256x4x32_6t122

*CAP
1 *2273:A1 0

*RES
1 *2109:dataout[30] *2273:A1 0
*END

*D_NET *1605 0.000000

*CONN
*I *2264:A1 I *L 0.0004 *D AOI22xp33_ASAP7_75t_L
*I *2109:dataout[31] O *L 0.0000 *D srambank_256x4x32_6t122

*CAP
1 *2264:A1 0

*RES
1 *2109:dataout[31] *2264:A1 0
*END

*D_NET *1606 0.000000

*CONN
*I *2289:B1 I *L 0.0004 *D AOI22xp33_ASAP7_75t_L
*I *2110:dataout[0] O *L 0.0000 *D srambank_256x4x32_6t122

*CAP
1 *2289:B1 0

*RES
1 *2110:dataout[0] *2289:B1 0
*END

*D_NET *1607 0.000000

*CONN
*I *2281:B1 I *L 0.0004 *D AOI22xp33_ASAP7_75t_L
*I *2110:dataout[1] O *L 0.0000 *D srambank_256x4x32_6t122

*CAP
1 *2281:B1 0

*RES
1 *2110:dataout[1] *2281:B1 0
*END

*D_NET *1608 0.000000

*CONN
*I *2211:B1 I *L 0.0004 *D AOI22xp33_ASAP7_75t_L
*I *2110:dataout[2] O *L 0.0000 *D srambank_256x4x32_6t122

*CAP
1 *2211:B1 0

*RES
1 *2110:dataout[2] *2211:B1 0
*END

*D_NET *1609 0.000000

*CONN
*I *2274:B1 I *L 0.0004 *D AOI22xp33_ASAP7_75t_L
*I *2110:dataout[3] O *L 0.0000 *D srambank_256x4x32_6t122

*CAP
1 *2274:B1 0

*RES
1 *2110:dataout[3] *2274:B1 0
*END

*D_NET *1610 0.000000

*CONN
*I *2269:B1 I *L 0.0004 *D AOI22xp33_ASAP7_75t_L
*I *2110:dataout[4] O *L 0.0000 *D srambank_256x4x32_6t122

*CAP
1 *2269:B1 0

*RES
1 *2110:dataout[4] *2269:B1 0
*END

*D_NET *1611 0.000000

*CONN
*I *2265:B1 I *L 0.0004 *D AOI22xp33_ASAP7_75t_L
*I *2110:dataout[5] O *L 0.0000 *D srambank_256x4x32_6t122

*CAP
1 *2265:B1 0

*RES
1 *2110:dataout[5] *2265:B1 0
*END

*D_NET *1612 0.000000

*CONN
*I *2263:B1 I *L 0.0004 *D AOI22xp33_ASAP7_75t_L
*I *2110:dataout[6] O *L 0.0000 *D srambank_256x4x32_6t122

*CAP
1 *2263:B1 0

*RES
1 *2110:dataout[6] *2263:B1 0
*END

*D_NET *1613 0.000000

*CONN
*I *2258:B1 I *L 0.0004 *D AOI22xp33_ASAP7_75t_L
*I *2110:dataout[7] O *L 0.0000 *D srambank_256x4x32_6t122

*CAP
1 *2258:B1 0

*RES
1 *2110:dataout[7] *2258:B1 0
*END

*D_NET *1614 0.000000

*CONN
*I *2254:B1 I *L 0.0004 *D AOI22xp33_ASAP7_75t_L
*I *2110:dataout[8] O *L 0.0000 *D srambank_256x4x32_6t122

*CAP
1 *2254:B1 0

*RES
1 *2110:dataout[8] *2254:B1 0
*END

*D_NET *1615 0.000000

*CONN
*I *2249:B1 I *L 0.0004 *D AOI22xp33_ASAP7_75t_L
*I *2110:dataout[9] O *L 0.0000 *D srambank_256x4x32_6t122

*CAP
1 *2249:B1 0

*RES
1 *2110:dataout[9] *2249:B1 0
*END

*D_NET *1616 0.000000

*CONN
*I *2247:B1 I *L 0.0004 *D AOI22xp33_ASAP7_75t_L
*I *2110:dataout[10] O *L 0.0000 *D srambank_256x4x32_6t122

*CAP
1 *2247:B1 0

*RES
1 *2110:dataout[10] *2247:B1 0
*END

*D_NET *1617 0.000000

*CONN
*I *2240:B1 I *L 0.0004 *D AOI22xp33_ASAP7_75t_L
*I *2110:dataout[11] O *L 0.0000 *D srambank_256x4x32_6t122

*CAP
1 *2240:B1 0

*RES
1 *2110:dataout[11] *2240:B1 0
*END

*D_NET *1618 0.000000

*CONN
*I *2304:B1 I *L 0.0004 *D AOI22xp33_ASAP7_75t_L
*I *2110:dataout[12] O *L 0.0000 *D srambank_256x4x32_6t122

*CAP
1 *2304:B1 0

*RES
1 *2110:dataout[12] *2304:B1 0
*END

*D_NET *1619 0.000000

*CONN
*I *2298:B1 I *L 0.0004 *D AOI22xp33_ASAP7_75t_L
*I *2110:dataout[13] O *L 0.0000 *D srambank_256x4x32_6t122

*CAP
1 *2298:B1 0

*RES
1 *2110:dataout[13] *2298:B1 0
*END

*D_NET *1620 0.000000

*CONN
*I *2294:B1 I *L 0.0004 *D AOI22xp33_ASAP7_75t_L
*I *2110:dataout[14] O *L 0.0000 *D srambank_256x4x32_6t122

*CAP
1 *2294:B1 0

*RES
1 *2110:dataout[14] *2294:B1 0
*END

*D_NET *1621 0.000000

*CONN
*I *2291:B1 I *L 0.0004 *D AOI22xp33_ASAP7_75t_L
*I *2110:dataout[15] O *L 0.0000 *D srambank_256x4x32_6t122

*CAP
1 *2291:B1 0

*RES
1 *2110:dataout[15] *2291:B1 0
*END

*D_NET *1622 0.000000

*CONN
*I *2286:B1 I *L 0.0004 *D AOI22xp33_ASAP7_75t_L
*I *2110:dataout[16] O *L 0.0000 *D srambank_256x4x32_6t122

*CAP
1 *2286:B1 0

*RES
1 *2110:dataout[16] *2286:B1 0
*END

*D_NET *1623 0.000000

*CONN
*I *2277:B1 I *L 0.0004 *D AOI22xp33_ASAP7_75t_L
*I *2110:dataout[17] O *L 0.0000 *D srambank_256x4x32_6t122

*CAP
1 *2277:B1 0

*RES
1 *2110:dataout[17] *2277:B1 0
*END

*D_NET *1624 0.000000

*CONN
*I *2270:B1 I *L 0.0004 *D AOI22xp33_ASAP7_75t_L
*I *2110:dataout[18] O *L 0.0000 *D srambank_256x4x32_6t122

*CAP
1 *2270:B1 0

*RES
1 *2110:dataout[18] *2270:B1 0
*END

*D_NET *1625 0.000000

*CONN
*I *2260:B1 I *L 0.0004 *D AOI22xp33_ASAP7_75t_L
*I *2110:dataout[19] O *L 0.0000 *D srambank_256x4x32_6t122

*CAP
1 *2260:B1 0

*RES
1 *2110:dataout[19] *2260:B1 0
*END

*D_NET *1626 0.000000

*CONN
*I *2257:B1 I *L 0.0004 *D AOI22xp33_ASAP7_75t_L
*I *2110:dataout[20] O *L 0.0000 *D srambank_256x4x32_6t122

*CAP
1 *2257:B1 0

*RES
1 *2110:dataout[20] *2257:B1 0
*END

*D_NET *1627 0.000000

*CONN
*I *2245:B1 I *L 0.0004 *D AOI22xp33_ASAP7_75t_L
*I *2110:dataout[21] O *L 0.0000 *D srambank_256x4x32_6t122

*CAP
1 *2245:B1 0

*RES
1 *2110:dataout[21] *2245:B1 0
*END

*D_NET *1628 0.000000

*CONN
*I *2300:B1 I *L 0.0004 *D AOI22xp33_ASAP7_75t_L
*I *2110:dataout[22] O *L 0.0000 *D srambank_256x4x32_6t122

*CAP
1 *2300:B1 0

*RES
1 *2110:dataout[22] *2300:B1 0
*END

*D_NET *1629 0.000000

*CONN
*I *2296:B1 I *L 0.0004 *D AOI22xp33_ASAP7_75t_L
*I *2110:dataout[23] O *L 0.0000 *D srambank_256x4x32_6t122

*CAP
1 *2296:B1 0

*RES
1 *2110:dataout[23] *2296:B1 0
*END

*D_NET *1630 0.000000

*CONN
*I *2288:B1 I *L 0.0004 *D AOI22xp33_ASAP7_75t_L
*I *2110:dataout[24] O *L 0.0000 *D srambank_256x4x32_6t122

*CAP
1 *2288:B1 0

*RES
1 *2110:dataout[24] *2288:B1 0
*END

*D_NET *1631 0.000000

*CONN
*I *2268:B1 I *L 0.0004 *D AOI22xp33_ASAP7_75t_L
*I *2110:dataout[25] O *L 0.0000 *D srambank_256x4x32_6t122

*CAP
1 *2268:B1 0

*RES
1 *2110:dataout[25] *2268:B1 0
*END

*D_NET *1632 0.000000

*CONN
*I *2251:B1 I *L 0.0004 *D AOI22xp33_ASAP7_75t_L
*I *2110:dataout[26] O *L 0.0000 *D srambank_256x4x32_6t122

*CAP
1 *2251:B1 0

*RES
1 *2110:dataout[26] *2251:B1 0
*END

*D_NET *1633 0.000000

*CONN
*I *2301:B1 I *L 0.0004 *D AOI22xp33_ASAP7_75t_L
*I *2110:dataout[27] O *L 0.0000 *D srambank_256x4x32_6t122

*CAP
1 *2301:B1 0

*RES
1 *2110:dataout[27] *2301:B1 0
*END

*D_NET *1634 0.000000

*CONN
*I *2280:B1 I *L 0.0004 *D AOI22xp33_ASAP7_75t_L
*I *2110:dataout[28] O *L 0.0000 *D srambank_256x4x32_6t122

*CAP
1 *2280:B1 0

*RES
1 *2110:dataout[28] *2280:B1 0
*END

*D_NET *1635 0.000000

*CONN
*I *2253:B1 I *L 0.0004 *D AOI22xp33_ASAP7_75t_L
*I *2110:dataout[29] O *L 0.0000 *D srambank_256x4x32_6t122

*CAP
1 *2253:B1 0

*RES
1 *2110:dataout[29] *2253:B1 0
*END

*D_NET *1636 0.000000

*CONN
*I *2273:B1 I *L 0.0004 *D AOI22xp33_ASAP7_75t_L
*I *2110:dataout[30] O *L 0.0000 *D srambank_256x4x32_6t122

*CAP
1 *2273:B1 0

*RES
1 *2110:dataout[30] *2273:B1 0
*END

*D_NET *1637 0.000000

*CONN
*I *2264:B1 I *L 0.0004 *D AOI22xp33_ASAP7_75t_L
*I *2110:dataout[31] O *L 0.0000 *D srambank_256x4x32_6t122

*CAP
1 *2264:B1 0

*RES
1 *2110:dataout[31] *2264:B1 0
*END

*D_NET *1638 0.000000

*CONN
*I *2218:A1 I *L 0.0004 *D AOI22xp33_ASAP7_75t_L
*I *2111:dataout[0] O *L 0.0000 *D srambank_256x4x32_6t122

*CAP
1 *2218:A1 0

*RES
1 *2111:dataout[0] *2218:A1 0
*END

*D_NET *1639 0.000000

*CONN
*I *2216:A1 I *L 0.0004 *D AOI22xp33_ASAP7_75t_L
*I *2111:dataout[1] O *L 0.0000 *D srambank_256x4x32_6t122

*CAP
1 *2216:A1 0

*RES
1 *2111:dataout[1] *2216:A1 0
*END

*D_NET *1640 0.000000

*CONN
*I *2211:A1 I *L 0.0004 *D AOI22xp33_ASAP7_75t_L
*I *2111:dataout[2] O *L 0.0000 *D srambank_256x4x32_6t122

*CAP
1 *2211:A1 0

*RES
1 *2111:dataout[2] *2211:A1 0
*END

*D_NET *1641 0.000000

*CONN
*I *2206:A1 I *L 0.0004 *D AOI22xp33_ASAP7_75t_L
*I *2111:dataout[3] O *L 0.0000 *D srambank_256x4x32_6t122

*CAP
1 *2206:A1 0

*RES
1 *2111:dataout[3] *2206:A1 0
*END

*D_NET *1642 0.000000

*CONN
*I *2204:A1 I *L 0.0004 *D AOI22xp33_ASAP7_75t_L
*I *2111:dataout[4] O *L 0.0000 *D srambank_256x4x32_6t122

*CAP
1 *2204:A1 0

*RES
1 *2111:dataout[4] *2204:A1 0
*END

*D_NET *1643 0.000000

*CONN
*I *2200:A1 I *L 0.0004 *D AOI22xp33_ASAP7_75t_L
*I *2111:dataout[5] O *L 0.0000 *D srambank_256x4x32_6t122

*CAP
1 *2200:A1 0

*RES
1 *2111:dataout[5] *2200:A1 0
*END

*D_NET *1644 0.000000

*CONN
*I *2195:A1 I *L 0.0004 *D AOI22xp33_ASAP7_75t_L
*I *2111:dataout[6] O *L 0.0000 *D srambank_256x4x32_6t122

*CAP
1 *2195:A1 0

*RES
1 *2111:dataout[6] *2195:A1 0
*END

*D_NET *1645 0.000000

*CONN
*I *2190:B1 I *L 0.0004 *D AOI22xp33_ASAP7_75t_L
*I *2111:dataout[7] O *L 0.0000 *D srambank_256x4x32_6t122

*CAP
1 *2190:B1 0

*RES
1 *2111:dataout[7] *2190:B1 0
*END

*D_NET *1646 0.000000

*CONN
*I *2187:A1 I *L 0.0004 *D AOI22xp33_ASAP7_75t_L
*I *2111:dataout[8] O *L 0.0000 *D srambank_256x4x32_6t122

*CAP
1 *2187:A1 0

*RES
1 *2111:dataout[8] *2187:A1 0
*END

*D_NET *1647 0.000000

*CONN
*I *2183:A1 I *L 0.0004 *D AOI22xp33_ASAP7_75t_L
*I *2111:dataout[9] O *L 0.0000 *D srambank_256x4x32_6t122

*CAP
1 *2183:A1 0

*RES
1 *2111:dataout[9] *2183:A1 0
*END

*D_NET *1648 0.000000

*CONN
*I *2244:A1 I *L 0.0004 *D AOI22xp33_ASAP7_75t_L
*I *2111:dataout[10] O *L 0.0000 *D srambank_256x4x32_6t122

*CAP
1 *2244:A1 0

*RES
1 *2111:dataout[10] *2244:A1 0
*END

*D_NET *1649 0.000000

*CONN
*I *2240:A1 I *L 0.0004 *D AOI22xp33_ASAP7_75t_L
*I *2111:dataout[11] O *L 0.0000 *D srambank_256x4x32_6t122

*CAP
1 *2240:A1 0

*RES
1 *2111:dataout[11] *2240:A1 0
*END

*D_NET *1650 0.000000

*CONN
*I *2234:A1 I *L 0.0004 *D AOI22xp33_ASAP7_75t_L
*I *2111:dataout[12] O *L 0.0000 *D srambank_256x4x32_6t122

*CAP
1 *2234:A1 0

*RES
1 *2111:dataout[12] *2234:A1 0
*END

*D_NET *1651 0.000000

*CONN
*I *2231:A1 I *L 0.0004 *D AOI22xp33_ASAP7_75t_L
*I *2111:dataout[13] O *L 0.0000 *D srambank_256x4x32_6t122

*CAP
1 *2231:A1 0

*RES
1 *2111:dataout[13] *2231:A1 0
*END

*D_NET *1652 0.000000

*CONN
*I *2228:A1 I *L 0.0004 *D AOI22xp33_ASAP7_75t_L
*I *2111:dataout[14] O *L 0.0000 *D srambank_256x4x32_6t122

*CAP
1 *2228:A1 0

*RES
1 *2111:dataout[14] *2228:A1 0
*END

*D_NET *1653 0.000000

*CONN
*I *2223:A1 I *L 0.0004 *D AOI22xp33_ASAP7_75t_L
*I *2111:dataout[15] O *L 0.0000 *D srambank_256x4x32_6t122

*CAP
1 *2223:A1 0

*RES
1 *2111:dataout[15] *2223:A1 0
*END

*D_NET *1654 0.000000

*CONN
*I *2219:A1 I *L 0.0004 *D AOI22xp33_ASAP7_75t_L
*I *2111:dataout[16] O *L 0.0000 *D srambank_256x4x32_6t122

*CAP
1 *2219:A1 0

*RES
1 *2111:dataout[16] *2219:A1 0
*END

*D_NET *1655 0.000000

*CONN
*I *2209:A1 I *L 0.0004 *D AOI22xp33_ASAP7_75t_L
*I *2111:dataout[17] O *L 0.0000 *D srambank_256x4x32_6t122

*CAP
1 *2209:A1 0

*RES
1 *2111:dataout[17] *2209:A1 0
*END

*D_NET *1656 0.000000

*CONN
*I *2202:A1 I *L 0.0004 *D AOI22xp33_ASAP7_75t_L
*I *2111:dataout[18] O *L 0.0000 *D srambank_256x4x32_6t122

*CAP
1 *2202:A1 0

*RES
1 *2111:dataout[18] *2202:A1 0
*END

*D_NET *1657 0.000000

*CONN
*I *2193:A1 I *L 0.0004 *D AOI22xp33_ASAP7_75t_L
*I *2111:dataout[19] O *L 0.0000 *D srambank_256x4x32_6t122

*CAP
1 *2193:A1 0

*RES
1 *2111:dataout[19] *2193:A1 0
*END

*D_NET *1658 0.000000

*CONN
*I *2186:A1 I *L 0.0004 *D AOI22xp33_ASAP7_75t_L
*I *2111:dataout[20] O *L 0.0000 *D srambank_256x4x32_6t122

*CAP
1 *2186:A1 0

*RES
1 *2111:dataout[20] *2186:A1 0
*END

*D_NET *1659 0.000000

*CONN
*I *2241:A1 I *L 0.0004 *D AOI22xp33_ASAP7_75t_L
*I *2111:dataout[21] O *L 0.0000 *D srambank_256x4x32_6t122

*CAP
1 *2241:A1 0

*RES
1 *2111:dataout[21] *2241:A1 0
*END

*D_NET *1660 0.000000

*CONN
*I *2394:B1 I *L 0.0004 *D AOI22xp33_ASAP7_75t_L
*I *2111:dataout[22] O *L 0.0000 *D srambank_256x4x32_6t122

*CAP
1 *2394:B1 0

*RES
1 *2111:dataout[22] *2394:B1 0
*END

*D_NET *1661 0.000000

*CONN
*I *2225:A1 I *L 0.0004 *D AOI22xp33_ASAP7_75t_L
*I *2111:dataout[23] O *L 0.0000 *D srambank_256x4x32_6t122

*CAP
1 *2225:A1 0

*RES
1 *2111:dataout[23] *2225:A1 0
*END

*D_NET *1662 0.000000

*CONN
*I *2214:A1 I *L 0.0004 *D AOI22xp33_ASAP7_75t_L
*I *2111:dataout[24] O *L 0.0000 *D srambank_256x4x32_6t122

*CAP
1 *2214:A1 0

*RES
1 *2111:dataout[24] *2214:A1 0
*END

*D_NET *1663 0.000000

*CONN
*I *2198:A1 I *L 0.0004 *D AOI22xp33_ASAP7_75t_L
*I *2111:dataout[25] O *L 0.0000 *D srambank_256x4x32_6t122

*CAP
1 *2198:A1 0

*RES
1 *2111:dataout[25] *2198:A1 0
*END

*D_NET *1664 0.000000

*CONN
*I *2184:A1 I *L 0.0004 *D AOI22xp33_ASAP7_75t_L
*I *2111:dataout[26] O *L 0.0000 *D srambank_256x4x32_6t122

*CAP
1 *2184:A1 0

*RES
1 *2111:dataout[26] *2184:A1 0
*END

*D_NET *1665 0.000000

*CONN
*I *2232:A1 I *L 0.0004 *D AOI22xp33_ASAP7_75t_L
*I *2111:dataout[27] O *L 0.0000 *D srambank_256x4x32_6t122

*CAP
1 *2232:A1 0

*RES
1 *2111:dataout[27] *2232:A1 0
*END

*D_NET *1666 0.000000

*CONN
*I *2210:A1 I *L 0.0004 *D AOI22xp33_ASAP7_75t_L
*I *2111:dataout[28] O *L 0.0000 *D srambank_256x4x32_6t122

*CAP
1 *2210:A1 0

*RES
1 *2111:dataout[28] *2210:A1 0
*END

*D_NET *1667 0.000000

*CONN
*I *2243:A1 I *L 0.0004 *D AOI22xp33_ASAP7_75t_L
*I *2111:dataout[29] O *L 0.0000 *D srambank_256x4x32_6t122

*CAP
1 *2243:A1 0

*RES
1 *2111:dataout[29] *2243:A1 0
*END

*D_NET *1668 0.000000

*CONN
*I *2201:A1 I *L 0.0004 *D AOI22xp33_ASAP7_75t_L
*I *2111:dataout[30] O *L 0.0000 *D srambank_256x4x32_6t122

*CAP
1 *2201:A1 0

*RES
1 *2111:dataout[30] *2201:A1 0
*END

*D_NET *1669 0.000000

*CONN
*I *2199:A1 I *L 0.0004 *D AOI22xp33_ASAP7_75t_L
*I *2111:dataout[31] O *L 0.0000 *D srambank_256x4x32_6t122

*CAP
1 *2199:A1 0

*RES
1 *2111:dataout[31] *2199:A1 0
*END

*D_NET *1670 0.000000

*CONN
*I *2218:B1 I *L 0.0004 *D AOI22xp33_ASAP7_75t_L
*I *2112:dataout[0] O *L 0.0000 *D srambank_256x4x32_6t122

*CAP
1 *2218:B1 0

*RES
1 *2112:dataout[0] *2218:B1 0
*END

*D_NET *1671 0.000000

*CONN
*I *2216:B1 I *L 0.0004 *D AOI22xp33_ASAP7_75t_L
*I *2112:dataout[1] O *L 0.0000 *D srambank_256x4x32_6t122

*CAP
1 *2216:B1 0

*RES
1 *2112:dataout[1] *2216:B1 0
*END

*D_NET *1672 0.000000

*CONN
*I *2278:B1 I *L 0.0004 *D AOI22xp33_ASAP7_75t_L
*I *2112:dataout[2] O *L 0.0000 *D srambank_256x4x32_6t122

*CAP
1 *2278:B1 0

*RES
1 *2112:dataout[2] *2278:B1 0
*END

*D_NET *1673 0.000000

*CONN
*I *2206:B1 I *L 0.0004 *D AOI22xp33_ASAP7_75t_L
*I *2112:dataout[3] O *L 0.0000 *D srambank_256x4x32_6t122

*CAP
1 *2206:B1 0

*RES
1 *2112:dataout[3] *2206:B1 0
*END

*D_NET *1674 0.000000

*CONN
*I *2204:B1 I *L 0.0004 *D AOI22xp33_ASAP7_75t_L
*I *2112:dataout[4] O *L 0.0000 *D srambank_256x4x32_6t122

*CAP
1 *2204:B1 0

*RES
1 *2112:dataout[4] *2204:B1 0
*END

*D_NET *1675 0.000000

*CONN
*I *2200:B1 I *L 0.0004 *D AOI22xp33_ASAP7_75t_L
*I *2112:dataout[5] O *L 0.0000 *D srambank_256x4x32_6t122

*CAP
1 *2200:B1 0

*RES
1 *2112:dataout[5] *2200:B1 0
*END

*D_NET *1676 0.000000

*CONN
*I *2195:B1 I *L 0.0004 *D AOI22xp33_ASAP7_75t_L
*I *2112:dataout[6] O *L 0.0000 *D srambank_256x4x32_6t122

*CAP
1 *2195:B1 0

*RES
1 *2112:dataout[6] *2195:B1 0
*END

*D_NET *1677 0.000000

*CONN
*I *2330:B1 I *L 0.0004 *D AOI22xp33_ASAP7_75t_L
*I *2112:dataout[7] O *L 0.0000 *D srambank_256x4x32_6t122

*CAP
1 *2330:B1 0

*RES
1 *2112:dataout[7] *2330:B1 0
*END

*D_NET *1678 0.000000

*CONN
*I *2187:B1 I *L 0.0004 *D AOI22xp33_ASAP7_75t_L
*I *2112:dataout[8] O *L 0.0000 *D srambank_256x4x32_6t122

*CAP
1 *2187:B1 0

*RES
1 *2112:dataout[8] *2187:B1 0
*END

*D_NET *1679 0.000000

*CONN
*I *2183:B1 I *L 0.0004 *D AOI22xp33_ASAP7_75t_L
*I *2112:dataout[9] O *L 0.0000 *D srambank_256x4x32_6t122

*CAP
1 *2183:B1 0

*RES
1 *2112:dataout[9] *2183:B1 0
*END

*D_NET *1680 0.000000

*CONN
*I *2246:B1 I *L 0.0004 *D AOI22xp33_ASAP7_75t_L
*I *2112:dataout[10] O *L 0.0000 *D srambank_256x4x32_6t122

*CAP
1 *2246:B1 0

*RES
1 *2112:dataout[10] *2246:B1 0
*END

*D_NET *1681 0.000000

*CONN
*I *2306:B1 I *L 0.0004 *D AOI22xp33_ASAP7_75t_L
*I *2112:dataout[11] O *L 0.0000 *D srambank_256x4x32_6t122

*CAP
1 *2306:B1 0

*RES
1 *2112:dataout[11] *2306:B1 0
*END

*D_NET *1682 0.000000

*CONN
*I *2234:B1 I *L 0.0004 *D AOI22xp33_ASAP7_75t_L
*I *2112:dataout[12] O *L 0.0000 *D srambank_256x4x32_6t122

*CAP
1 *2234:B1 0

*RES
1 *2112:dataout[12] *2234:B1 0
*END

*D_NET *1683 0.000000

*CONN
*I *2231:B1 I *L 0.0004 *D AOI22xp33_ASAP7_75t_L
*I *2112:dataout[13] O *L 0.0000 *D srambank_256x4x32_6t122

*CAP
1 *2231:B1 0

*RES
1 *2112:dataout[13] *2231:B1 0
*END

*D_NET *1684 0.000000

*CONN
*I *2228:B1 I *L 0.0004 *D AOI22xp33_ASAP7_75t_L
*I *2112:dataout[14] O *L 0.0000 *D srambank_256x4x32_6t122

*CAP
1 *2228:B1 0

*RES
1 *2112:dataout[14] *2228:B1 0
*END

*D_NET *1685 0.000000

*CONN
*I *2223:B1 I *L 0.0004 *D AOI22xp33_ASAP7_75t_L
*I *2112:dataout[15] O *L 0.0000 *D srambank_256x4x32_6t122

*CAP
1 *2223:B1 0

*RES
1 *2112:dataout[15] *2223:B1 0
*END

*D_NET *1686 0.000000

*CONN
*I *2219:B1 I *L 0.0004 *D AOI22xp33_ASAP7_75t_L
*I *2112:dataout[16] O *L 0.0000 *D srambank_256x4x32_6t122

*CAP
1 *2219:B1 0

*RES
1 *2112:dataout[16] *2219:B1 0
*END

*D_NET *1687 0.000000

*CONN
*I *2276:B1 I *L 0.0004 *D AOI22xp33_ASAP7_75t_L
*I *2112:dataout[17] O *L 0.0000 *D srambank_256x4x32_6t122

*CAP
1 *2276:B1 0

*RES
1 *2112:dataout[17] *2276:B1 0
*END

*D_NET *1688 0.000000

*CONN
*I *2202:B1 I *L 0.0004 *D AOI22xp33_ASAP7_75t_L
*I *2112:dataout[18] O *L 0.0000 *D srambank_256x4x32_6t122

*CAP
1 *2202:B1 0

*RES
1 *2112:dataout[18] *2202:B1 0
*END

*D_NET *1689 0.000000

*CONN
*I *2193:B1 I *L 0.0004 *D AOI22xp33_ASAP7_75t_L
*I *2112:dataout[19] O *L 0.0000 *D srambank_256x4x32_6t122

*CAP
1 *2193:B1 0

*RES
1 *2112:dataout[19] *2193:B1 0
*END

*D_NET *1690 0.000000

*CONN
*I *2252:B1 I *L 0.0004 *D AOI22xp33_ASAP7_75t_L
*I *2112:dataout[20] O *L 0.0000 *D srambank_256x4x32_6t122

*CAP
1 *2252:B1 0

*RES
1 *2112:dataout[20] *2252:B1 0
*END

*D_NET *1691 0.000000

*CONN
*I *2241:B1 I *L 0.0004 *D AOI22xp33_ASAP7_75t_L
*I *2112:dataout[21] O *L 0.0000 *D srambank_256x4x32_6t122

*CAP
1 *2241:B1 0

*RES
1 *2112:dataout[21] *2241:B1 0
*END

*D_NET *1692 0.000000

*CONN
*I *2235:B1 I *L 0.0004 *D AOI22xp33_ASAP7_75t_L
*I *2112:dataout[22] O *L 0.0000 *D srambank_256x4x32_6t122

*CAP
1 *2235:B1 0

*RES
1 *2112:dataout[22] *2235:B1 0
*END

*D_NET *1693 0.000000

*CONN
*I *2225:B1 I *L 0.0004 *D AOI22xp33_ASAP7_75t_L
*I *2112:dataout[23] O *L 0.0000 *D srambank_256x4x32_6t122

*CAP
1 *2225:B1 0

*RES
1 *2112:dataout[23] *2225:B1 0
*END

*D_NET *1694 0.000000

*CONN
*I *2214:B1 I *L 0.0004 *D AOI22xp33_ASAP7_75t_L
*I *2112:dataout[24] O *L 0.0000 *D srambank_256x4x32_6t122

*CAP
1 *2214:B1 0

*RES
1 *2112:dataout[24] *2214:B1 0
*END

*D_NET *1695 0.000000

*CONN
*I *2267:B1 I *L 0.0004 *D AOI22xp33_ASAP7_75t_L
*I *2112:dataout[25] O *L 0.0000 *D srambank_256x4x32_6t122

*CAP
1 *2267:B1 0

*RES
1 *2112:dataout[25] *2267:B1 0
*END

*D_NET *1696 0.000000

*CONN
*I *2184:B1 I *L 0.0004 *D AOI22xp33_ASAP7_75t_L
*I *2112:dataout[26] O *L 0.0000 *D srambank_256x4x32_6t122

*CAP
1 *2184:B1 0

*RES
1 *2112:dataout[26] *2184:B1 0
*END

*D_NET *1697 0.000000

*CONN
*I *2232:B1 I *L 0.0004 *D AOI22xp33_ASAP7_75t_L
*I *2112:dataout[27] O *L 0.0000 *D srambank_256x4x32_6t122

*CAP
1 *2232:B1 0

*RES
1 *2112:dataout[27] *2232:B1 0
*END

*D_NET *1698 0.000000

*CONN
*I *2210:B1 I *L 0.0004 *D AOI22xp33_ASAP7_75t_L
*I *2112:dataout[28] O *L 0.0000 *D srambank_256x4x32_6t122

*CAP
1 *2210:B1 0

*RES
1 *2112:dataout[28] *2210:B1 0
*END

*D_NET *1699 0.000000

*CONN
*I *2243:B1 I *L 0.0004 *D AOI22xp33_ASAP7_75t_L
*I *2112:dataout[29] O *L 0.0000 *D srambank_256x4x32_6t122

*CAP
1 *2243:B1 0

*RES
1 *2112:dataout[29] *2243:B1 0
*END

*D_NET *1700 0.000000

*CONN
*I *2201:B1 I *L 0.0004 *D AOI22xp33_ASAP7_75t_L
*I *2112:dataout[30] O *L 0.0000 *D srambank_256x4x32_6t122

*CAP
1 *2201:B1 0

*RES
1 *2112:dataout[30] *2201:B1 0
*END

*D_NET *1701 0.000000

*CONN
*I *2199:B1 I *L 0.0004 *D AOI22xp33_ASAP7_75t_L
*I *2112:dataout[31] O *L 0.0000 *D srambank_256x4x32_6t122

*CAP
1 *2199:B1 0

*RES
1 *2112:dataout[31] *2199:B1 0
*END

*D_NET *1702 0.000000

*CONN
*I *2536:A1 I *L 0.0004 *D AOI22xp33_ASAP7_75t_L
*I *2496:A I *L 0.0006 *D INVx1_ASAP7_75t_L
*I *2489:A I *L 0.0003 *D NOR2xp33_ASAP7_75t_L
*I *2480:A I *L 0.0005 *D NAND2xp5_ASAP7_75t_L
*I *2491:B I *L 0.0005 *D NAND2xp5_ASAP7_75t_L
*I *2530:QN O *L 0.0000 *D DFFHQNx1_ASAP7_75t_L

*CAP
1 *2536:A1 0
2 *2496:A 0
3 *2489:A 0
4 *2480:A 0
5 *2491:B 0

*RES
1 *2530:QN *2536:A1 0
2 *2530:QN *2496:A 0
3 *2530:QN *2489:A 0
4 *2530:QN *2480:A 0
5 *2530:QN *2491:B 0
*END

*D_NET *1703 0.000000

*CONN
*I *2534:A1 I *L 0.0004 *D AOI22xp33_ASAP7_75t_L
*I *2492:A I *L 0.0006 *D INVx1_ASAP7_75t_L
*I *2466:C I *L 0.0005 *D NOR3xp33_ASAP7_75t_L
*I *2465:C I *L 0.0005 *D NOR3xp33_ASAP7_75t_L
*I *2469:C I *L 0.0005 *D NOR3xp33_ASAP7_75t_L
*I *2481:A I *L 0.0005 *D NAND2xp5_ASAP7_75t_L
*I *2483:B I *L 0.0005 *D NAND2xp5_ASAP7_75t_L
*I *2490:A I *L 0.0003 *D NOR2xp33_ASAP7_75t_L
*I *2531:QN O *L 0.0000 *D DFFHQNx1_ASAP7_75t_L

*CAP
1 *2534:A1 0
2 *2492:A 0
3 *2466:C 0
4 *2465:C 0
5 *2469:C 0
6 *2481:A 0
7 *2483:B 0
8 *2490:A 0

*RES
1 *2531:QN *2534:A1 0
2 *2531:QN *2492:A 0
3 *2531:QN *2466:C 0
4 *2531:QN *2465:C 0
5 *2531:QN *2469:C 0
6 *2531:QN *2481:A 0
7 *2531:QN *2483:B 0
8 *2531:QN *2490:A 0
*END

*D_NET *1704 0.000000

*CONN
*I *2535:A1 I *L 0.0004 *D AOI22xp33_ASAP7_75t_L
*I *2493:A I *L 0.0006 *D INVx1_ASAP7_75t_L
*I *2466:B I *L 0.0005 *D NOR3xp33_ASAP7_75t_L
*I *2465:B I *L 0.0005 *D NOR3xp33_ASAP7_75t_L
*I *2469:B I *L 0.0005 *D NOR3xp33_ASAP7_75t_L
*I *2479:A I *L 0.0005 *D NAND2xp5_ASAP7_75t_L
*I *2483:A I *L 0.0005 *D NAND2xp5_ASAP7_75t_L
*I *2490:B I *L 0.0004 *D NOR2xp33_ASAP7_75t_L
*I *2532:QN O *L 0.0000 *D DFFHQNx1_ASAP7_75t_L

*CAP
1 *2535:A1 0
2 *2493:A 0
3 *2466:B 0
4 *2465:B 0
5 *2469:B 0
6 *2479:A 0
7 *2483:A 0
8 *2490:B 0

*RES
1 *2532:QN *2535:A1 0
2 *2532:QN *2493:A 0
3 *2532:QN *2466:B 0
4 *2532:QN *2465:B 0
5 *2532:QN *2469:B 0
6 *2532:QN *2479:A 0
7 *2532:QN *2483:A 0
8 *2532:QN *2490:B 0
*END

*D_NET *1705 0.000000

*CONN
*I *2537:A1 I *L 0.0004 *D AOI22xp33_ASAP7_75t_L
*I *2494:A I *L 0.0006 *D INVx1_ASAP7_75t_L
*I *2489:B I *L 0.0004 *D NOR2xp33_ASAP7_75t_L
*I *2482:A I *L 0.0005 *D NAND2xp5_ASAP7_75t_L
*I *2491:A I *L 0.0005 *D NAND2xp5_ASAP7_75t_L
*I *2533:QN O *L 0.0000 *D DFFHQNx1_ASAP7_75t_L

*CAP
1 *2537:A1 0
2 *2494:A 0
3 *2489:B 0
4 *2482:A 0
5 *2491:A 0

*RES
1 *2533:QN *2537:A1 0
2 *2533:QN *2494:A 0
3 *2533:QN *2489:B 0
4 *2533:QN *2482:A 0
5 *2533:QN *2491:A 0
*END

*D_NET *1706 0.000000

*CONN
*I *2537:A2 I *L 0.0004 *D AOI22xp33_ASAP7_75t_L
*I *2536:A2 I *L 0.0004 *D AOI22xp33_ASAP7_75t_L
*I *2534:A2 I *L 0.0004 *D AOI22xp33_ASAP7_75t_L
*I *2535:A2 I *L 0.0004 *D AOI22xp33_ASAP7_75t_L
*I *2538:Y O *L 0.0000 *D INVx1_ASAP7_75t_L

*CAP
1 *2537:A2 0
2 *2536:A2 0
3 *2534:A2 0
4 *2535:A2 0

*RES
1 *2538:Y *2537:A2 0
2 *2538:Y *2536:A2 0
3 *2538:Y *2534:A2 0
4 *2538:Y *2535:A2 0
*END

*D_NET *1707 0.000000

*CONN
*I *2533:D I *L 0.0006 *D DFFHQNx1_ASAP7_75t_L
*I *2537:Y O *L 0.0000 *D AOI22xp33_ASAP7_75t_L

*CAP
1 *2533:D 0

*RES
1 *2537:Y *2533:D 0
*END

*D_NET *1708 0.000000

*CONN
*I *2530:D I *L 0.0006 *D DFFHQNx1_ASAP7_75t_L
*I *2536:Y O *L 0.0000 *D AOI22xp33_ASAP7_75t_L

*CAP
1 *2530:D 0

*RES
1 *2536:Y *2530:D 0
*END

*D_NET *1709 0.000000

*CONN
*I *2532:D I *L 0.0006 *D DFFHQNx1_ASAP7_75t_L
*I *2535:Y O *L 0.0000 *D AOI22xp33_ASAP7_75t_L

*CAP
1 *2532:D 0

*RES
1 *2535:Y *2532:D 0
*END

*D_NET *1710 0.000000

*CONN
*I *2531:D I *L 0.0006 *D DFFHQNx1_ASAP7_75t_L
*I *2534:Y O *L 0.0000 *D AOI22xp33_ASAP7_75t_L

*CAP
1 *2531:D 0

*RES
1 *2534:Y *2531:D 0
*END

*D_NET *1711 0.000000

*CONN
*I *2528:A I *L 0.0006 *D INVx1_ASAP7_75t_L
*I *2529:Y O *L 0.0000 *D INVx1_ASAP7_75t_L

*CAP
1 *2528:A 0

*RES
1 *2529:Y *2528:A 0
*END

*D_NET *1712 0.000000

*CONN
*I *2406:A2 I *L 0.0004 *D AOI22xp33_ASAP7_75t_L
*I *2423:A2 I *L 0.0004 *D AOI22xp33_ASAP7_75t_L
*I *2435:A2 I *L 0.0004 *D AOI22xp33_ASAP7_75t_L
*I *2426:A2 I *L 0.0004 *D AOI22xp33_ASAP7_75t_L
*I *2429:A2 I *L 0.0004 *D AOI22xp33_ASAP7_75t_L
*I *2411:A2 I *L 0.0004 *D AOI22xp33_ASAP7_75t_L
*I *2419:A2 I *L 0.0004 *D AOI22xp33_ASAP7_75t_L
*I *2431:A2 I *L 0.0004 *D AOI22xp33_ASAP7_75t_L
*I *2418:A2 I *L 0.0004 *D AOI22xp33_ASAP7_75t_L
*I *2415:A2 I *L 0.0004 *D AOI22xp33_ASAP7_75t_L
*I *2430:A2 I *L 0.0004 *D AOI22xp33_ASAP7_75t_L
*I *2414:A2 I *L 0.0004 *D AOI22xp33_ASAP7_75t_L
*I *2421:A2 I *L 0.0004 *D AOI22xp33_ASAP7_75t_L
*I *2407:A2 I *L 0.0004 *D AOI22xp33_ASAP7_75t_L
*I *2420:A2 I *L 0.0004 *D AOI22xp33_ASAP7_75t_L
*I *2417:A2 I *L 0.0004 *D AOI22xp33_ASAP7_75t_L
*I *2528:Y O *L 0.0000 *D INVx1_ASAP7_75t_L

*CAP
1 *2406:A2 0
2 *2423:A2 0
3 *2435:A2 0
4 *2426:A2 0
5 *2429:A2 0
6 *2411:A2 0
7 *2419:A2 0
8 *2431:A2 0
9 *2418:A2 0
10 *2415:A2 0
11 *2430:A2 0
12 *2414:A2 0
13 *2421:A2 0
14 *2407:A2 0
15 *2420:A2 0
16 *2417:A2 0

*RES
1 *2528:Y *2406:A2 0
2 *2528:Y *2423:A2 0
3 *2528:Y *2435:A2 0
4 *2528:Y *2426:A2 0
5 *2528:Y *2429:A2 0
6 *2528:Y *2411:A2 0
7 *2528:Y *2419:A2 0
8 *2528:Y *2431:A2 0
9 *2528:Y *2418:A2 0
10 *2528:Y *2415:A2 0
11 *2528:Y *2430:A2 0
12 *2528:Y *2414:A2 0
13 *2528:Y *2421:A2 0
14 *2528:Y *2407:A2 0
15 *2528:Y *2420:A2 0
16 *2528:Y *2417:A2 0
*END

*D_NET *1713 0.000000

*CONN
*I *2526:A I *L 0.0006 *D INVx1_ASAP7_75t_L
*I *2527:Y O *L 0.0000 *D INVx1_ASAP7_75t_L

*CAP
1 *2526:A 0

*RES
1 *2527:Y *2526:A 0
*END

*D_NET *1714 0.000000

*CONN
*I *2237:B2 I *L 0.0004 *D AOI22xp33_ASAP7_75t_L
*I *2181:B2 I *L 0.0004 *D AOI22xp33_ASAP7_75t_L
*I *2233:B2 I *L 0.0004 *D AOI22xp33_ASAP7_75t_L
*I *2226:B2 I *L 0.0004 *D AOI22xp33_ASAP7_75t_L
*I *2196:B2 I *L 0.0004 *D AOI22xp33_ASAP7_75t_L
*I *2239:B2 I *L 0.0004 *D AOI22xp33_ASAP7_75t_L
*I *2224:B2 I *L 0.0004 *D AOI22xp33_ASAP7_75t_L
*I *2230:B2 I *L 0.0004 *D AOI22xp33_ASAP7_75t_L
*I *2207:B2 I *L 0.0004 *D AOI22xp33_ASAP7_75t_L
*I *2203:B2 I *L 0.0004 *D AOI22xp33_ASAP7_75t_L
*I *2215:B2 I *L 0.0004 *D AOI22xp33_ASAP7_75t_L
*I *2217:B2 I *L 0.0004 *D AOI22xp33_ASAP7_75t_L
*I *2205:B2 I *L 0.0004 *D AOI22xp33_ASAP7_75t_L
*I *2222:B2 I *L 0.0004 *D AOI22xp33_ASAP7_75t_L
*I *2227:B2 I *L 0.0004 *D AOI22xp33_ASAP7_75t_L
*I *2220:B2 I *L 0.0004 *D AOI22xp33_ASAP7_75t_L
*I *2526:Y O *L 0.0000 *D INVx1_ASAP7_75t_L

*CAP
1 *2237:B2 0
2 *2181:B2 0
3 *2233:B2 0
4 *2226:B2 0
5 *2196:B2 0
6 *2239:B2 0
7 *2224:B2 0
8 *2230:B2 0
9 *2207:B2 0
10 *2203:B2 0
11 *2215:B2 0
12 *2217:B2 0
13 *2205:B2 0
14 *2222:B2 0
15 *2227:B2 0
16 *2220:B2 0

*RES
1 *2526:Y *2237:B2 0
2 *2526:Y *2181:B2 0
3 *2526:Y *2233:B2 0
4 *2526:Y *2226:B2 0
5 *2526:Y *2196:B2 0
6 *2526:Y *2239:B2 0
7 *2526:Y *2224:B2 0
8 *2526:Y *2230:B2 0
9 *2526:Y *2207:B2 0
10 *2526:Y *2203:B2 0
11 *2526:Y *2215:B2 0
12 *2526:Y *2217:B2 0
13 *2526:Y *2205:B2 0
14 *2526:Y *2222:B2 0
15 *2526:Y *2227:B2 0
16 *2526:Y *2220:B2 0
*END

*D_NET *1715 0.000000

*CONN
*I *2524:A I *L 0.0006 *D INVx1_ASAP7_75t_L
*I *2525:Y O *L 0.0000 *D INVx1_ASAP7_75t_L

*CAP
1 *2524:A 0

*RES
1 *2525:Y *2524:A 0
*END

*D_NET *1716 0.000000

*CONN
*I *2234:A2 I *L 0.0004 *D AOI22xp33_ASAP7_75t_L
*I *2204:A2 I *L 0.0004 *D AOI22xp33_ASAP7_75t_L
*I *2243:A2 I *L 0.0004 *D AOI22xp33_ASAP7_75t_L
*I *2232:A2 I *L 0.0004 *D AOI22xp33_ASAP7_75t_L
*I *2199:A2 I *L 0.0004 *D AOI22xp33_ASAP7_75t_L
*I *2223:A2 I *L 0.0004 *D AOI22xp33_ASAP7_75t_L
*I *2210:A2 I *L 0.0004 *D AOI22xp33_ASAP7_75t_L
*I *2195:A2 I *L 0.0004 *D AOI22xp33_ASAP7_75t_L
*I *2190:B2 I *L 0.0004 *D AOI22xp33_ASAP7_75t_L
*I *2209:A2 I *L 0.0004 *D AOI22xp33_ASAP7_75t_L
*I *2198:A2 I *L 0.0004 *D AOI22xp33_ASAP7_75t_L
*I *2186:A2 I *L 0.0004 *D AOI22xp33_ASAP7_75t_L
*I *2184:A2 I *L 0.0004 *D AOI22xp33_ASAP7_75t_L
*I *2183:A2 I *L 0.0004 *D AOI22xp33_ASAP7_75t_L
*I *2206:A2 I *L 0.0004 *D AOI22xp33_ASAP7_75t_L
*I *2216:A2 I *L 0.0004 *D AOI22xp33_ASAP7_75t_L
*I *2524:Y O *L 0.0000 *D INVx1_ASAP7_75t_L

*CAP
1 *2234:A2 0
2 *2204:A2 0
3 *2243:A2 0
4 *2232:A2 0
5 *2199:A2 0
6 *2223:A2 0
7 *2210:A2 0
8 *2195:A2 0
9 *2190:B2 0
10 *2209:A2 0
11 *2198:A2 0
12 *2186:A2 0
13 *2184:A2 0
14 *2183:A2 0
15 *2206:A2 0
16 *2216:A2 0

*RES
1 *2524:Y *2234:A2 0
2 *2524:Y *2204:A2 0
3 *2524:Y *2243:A2 0
4 *2524:Y *2232:A2 0
5 *2524:Y *2199:A2 0
6 *2524:Y *2223:A2 0
7 *2524:Y *2210:A2 0
8 *2524:Y *2195:A2 0
9 *2524:Y *2190:B2 0
10 *2524:Y *2209:A2 0
11 *2524:Y *2198:A2 0
12 *2524:Y *2186:A2 0
13 *2524:Y *2184:A2 0
14 *2524:Y *2183:A2 0
15 *2524:Y *2206:A2 0
16 *2524:Y *2216:A2 0
*END

*D_NET *1717 0.000000

*CONN
*I *2522:A I *L 0.0006 *D INVx1_ASAP7_75t_L
*I *2523:Y O *L 0.0000 *D INVx1_ASAP7_75t_L

*CAP
1 *2522:A 0

*RES
1 *2523:Y *2522:A 0
*END

*D_NET *1718 0.000000

*CONN
*I *2229:A2 I *L 0.0004 *D AOI22xp33_ASAP7_75t_L
*I *2197:A2 I *L 0.0004 *D AOI22xp33_ASAP7_75t_L
*I *2233:A2 I *L 0.0004 *D AOI22xp33_ASAP7_75t_L
*I *2226:A2 I *L 0.0004 *D AOI22xp33_ASAP7_75t_L
*I *2237:A2 I *L 0.0004 *D AOI22xp33_ASAP7_75t_L
*I *2188:A2 I *L 0.0004 *D AOI22xp33_ASAP7_75t_L
*I *2208:A2 I *L 0.0004 *D AOI22xp33_ASAP7_75t_L
*I *2230:A2 I *L 0.0004 *D AOI22xp33_ASAP7_75t_L
*I *2236:A2 I *L 0.0004 *D AOI22xp33_ASAP7_75t_L
*I *2205:A2 I *L 0.0004 *D AOI22xp33_ASAP7_75t_L
*I *2189:A2 I *L 0.0004 *D AOI22xp33_ASAP7_75t_L
*I *2212:A2 I *L 0.0004 *D AOI22xp33_ASAP7_75t_L
*I *2227:A2 I *L 0.0004 *D AOI22xp33_ASAP7_75t_L
*I *2217:A2 I *L 0.0004 *D AOI22xp33_ASAP7_75t_L
*I *2194:A2 I *L 0.0004 *D AOI22xp33_ASAP7_75t_L
*I *2203:A2 I *L 0.0004 *D AOI22xp33_ASAP7_75t_L
*I *2522:Y O *L 0.0000 *D INVx1_ASAP7_75t_L

*CAP
1 *2229:A2 0
2 *2197:A2 0
3 *2233:A2 0
4 *2226:A2 0
5 *2237:A2 0
6 *2188:A2 0
7 *2208:A2 0
8 *2230:A2 0
9 *2236:A2 0
10 *2205:A2 0
11 *2189:A2 0
12 *2212:A2 0
13 *2227:A2 0
14 *2217:A2 0
15 *2194:A2 0
16 *2203:A2 0

*RES
1 *2522:Y *2229:A2 0
2 *2522:Y *2197:A2 0
3 *2522:Y *2233:A2 0
4 *2522:Y *2226:A2 0
5 *2522:Y *2237:A2 0
6 *2522:Y *2188:A2 0
7 *2522:Y *2208:A2 0
8 *2522:Y *2230:A2 0
9 *2522:Y *2236:A2 0
10 *2522:Y *2205:A2 0
11 *2522:Y *2189:A2 0
12 *2522:Y *2212:A2 0
13 *2522:Y *2227:A2 0
14 *2522:Y *2217:A2 0
15 *2522:Y *2194:A2 0
16 *2522:Y *2203:A2 0
*END

*D_NET *1719 0.000000

*CONN
*I *2520:A I *L 0.0006 *D INVx1_ASAP7_75t_L
*I *2521:Y O *L 0.0000 *D INVx1_ASAP7_75t_L

*CAP
1 *2520:A 0

*RES
1 *2521:Y *2520:A 0
*END

*D_NET *1720 0.000000

*CONN
*I *2361:A2 I *L 0.0004 *D AOI22xp33_ASAP7_75t_L
*I *2329:A2 I *L 0.0004 *D AOI22xp33_ASAP7_75t_L
*I *2370:A2 I *L 0.0004 *D AOI22xp33_ASAP7_75t_L
*I *2379:A2 I *L 0.0004 *D AOI22xp33_ASAP7_75t_L
*I *2388:A2 I *L 0.0004 *D AOI22xp33_ASAP7_75t_L
*I *2339:A2 I *L 0.0004 *D AOI22xp33_ASAP7_75t_L
*I *2355:A2 I *L 0.0004 *D AOI22xp33_ASAP7_75t_L
*I *2332:A2 I *L 0.0004 *D AOI22xp33_ASAP7_75t_L
*I *2402:A2 I *L 0.0004 *D AOI22xp33_ASAP7_75t_L
*I *2365:A2 I *L 0.0004 *D AOI22xp33_ASAP7_75t_L
*I *2378:A2 I *L 0.0004 *D AOI22xp33_ASAP7_75t_L
*I *2325:A2 I *L 0.0004 *D AOI22xp33_ASAP7_75t_L
*I *2397:A2 I *L 0.0004 *D AOI22xp33_ASAP7_75t_L
*I *2312:A2 I *L 0.0004 *D AOI22xp33_ASAP7_75t_L
*I *2342:A2 I *L 0.0004 *D AOI22xp33_ASAP7_75t_L
*I *2375:A2 I *L 0.0004 *D AOI22xp33_ASAP7_75t_L
*I *2520:Y O *L 0.0000 *D INVx1_ASAP7_75t_L

*CAP
1 *2361:A2 0
2 *2329:A2 0
3 *2370:A2 0
4 *2379:A2 0
5 *2388:A2 0
6 *2339:A2 0
7 *2355:A2 0
8 *2332:A2 0
9 *2402:A2 0
10 *2365:A2 0
11 *2378:A2 0
12 *2325:A2 0
13 *2397:A2 0
14 *2312:A2 0
15 *2342:A2 0
16 *2375:A2 0

*RES
1 *2520:Y *2361:A2 0
2 *2520:Y *2329:A2 0
3 *2520:Y *2370:A2 0
4 *2520:Y *2379:A2 0
5 *2520:Y *2388:A2 0
6 *2520:Y *2339:A2 0
7 *2520:Y *2355:A2 0
8 *2520:Y *2332:A2 0
9 *2520:Y *2402:A2 0
10 *2520:Y *2365:A2 0
11 *2520:Y *2378:A2 0
12 *2520:Y *2325:A2 0
13 *2520:Y *2397:A2 0
14 *2520:Y *2312:A2 0
15 *2520:Y *2342:A2 0
16 *2520:Y *2375:A2 0
*END

*D_NET *1721 0.000000

*CONN
*I *2518:A I *L 0.0006 *D INVx1_ASAP7_75t_L
*I *2519:Y O *L 0.0000 *D INVx1_ASAP7_75t_L

*CAP
1 *2518:A 0

*RES
1 *2519:Y *2518:A 0
*END

*D_NET *1722 0.000000

*CONN
*I *2406:B2 I *L 0.0004 *D AOI22xp33_ASAP7_75t_L
*I *2423:B2 I *L 0.0004 *D AOI22xp33_ASAP7_75t_L
*I *2435:B2 I *L 0.0004 *D AOI22xp33_ASAP7_75t_L
*I *2426:B2 I *L 0.0004 *D AOI22xp33_ASAP7_75t_L
*I *2429:B2 I *L 0.0004 *D AOI22xp33_ASAP7_75t_L
*I *2411:B2 I *L 0.0004 *D AOI22xp33_ASAP7_75t_L
*I *2419:B2 I *L 0.0004 *D AOI22xp33_ASAP7_75t_L
*I *2431:B2 I *L 0.0004 *D AOI22xp33_ASAP7_75t_L
*I *2418:B2 I *L 0.0004 *D AOI22xp33_ASAP7_75t_L
*I *2415:B2 I *L 0.0004 *D AOI22xp33_ASAP7_75t_L
*I *2430:B2 I *L 0.0004 *D AOI22xp33_ASAP7_75t_L
*I *2414:B2 I *L 0.0004 *D AOI22xp33_ASAP7_75t_L
*I *2421:B2 I *L 0.0004 *D AOI22xp33_ASAP7_75t_L
*I *2407:B2 I *L 0.0004 *D AOI22xp33_ASAP7_75t_L
*I *2420:B2 I *L 0.0004 *D AOI22xp33_ASAP7_75t_L
*I *2417:B2 I *L 0.0004 *D AOI22xp33_ASAP7_75t_L
*I *2518:Y O *L 0.0000 *D INVx1_ASAP7_75t_L

*CAP
1 *2406:B2 0
2 *2423:B2 0
3 *2435:B2 0
4 *2426:B2 0
5 *2429:B2 0
6 *2411:B2 0
7 *2419:B2 0
8 *2431:B2 0
9 *2418:B2 0
10 *2415:B2 0
11 *2430:B2 0
12 *2414:B2 0
13 *2421:B2 0
14 *2407:B2 0
15 *2420:B2 0
16 *2417:B2 0

*RES
1 *2518:Y *2406:B2 0
2 *2518:Y *2423:B2 0
3 *2518:Y *2435:B2 0
4 *2518:Y *2426:B2 0
5 *2518:Y *2429:B2 0
6 *2518:Y *2411:B2 0
7 *2518:Y *2419:B2 0
8 *2518:Y *2431:B2 0
9 *2518:Y *2418:B2 0
10 *2518:Y *2415:B2 0
11 *2518:Y *2430:B2 0
12 *2518:Y *2414:B2 0
13 *2518:Y *2421:B2 0
14 *2518:Y *2407:B2 0
15 *2518:Y *2420:B2 0
16 *2518:Y *2417:B2 0
*END

*D_NET *1723 0.000000

*CONN
*I *2516:A I *L 0.0006 *D INVx1_ASAP7_75t_L
*I *2517:Y O *L 0.0000 *D INVx1_ASAP7_75t_L

*CAP
1 *2516:A 0

*RES
1 *2517:Y *2516:A 0
*END

*D_NET *1724 0.000000

*CONN
*I *2347:A2 I *L 0.0004 *D AOI22xp33_ASAP7_75t_L
*I *2394:A2 I *L 0.0004 *D AOI22xp33_ASAP7_75t_L
*I *2371:A2 I *L 0.0004 *D AOI22xp33_ASAP7_75t_L
*I *2321:A2 I *L 0.0004 *D AOI22xp33_ASAP7_75t_L
*I *2356:A2 I *L 0.0004 *D AOI22xp33_ASAP7_75t_L
*I *2314:A2 I *L 0.0004 *D AOI22xp33_ASAP7_75t_L
*I *2363:A2 I *L 0.0004 *D AOI22xp33_ASAP7_75t_L
*I *2366:A2 I *L 0.0004 *D AOI22xp33_ASAP7_75t_L
*I *2369:A2 I *L 0.0004 *D AOI22xp33_ASAP7_75t_L
*I *2340:A2 I *L 0.0004 *D AOI22xp33_ASAP7_75t_L
*I *2330:A2 I *L 0.0004 *D AOI22xp33_ASAP7_75t_L
*I *2316:A2 I *L 0.0004 *D AOI22xp33_ASAP7_75t_L
*I *2310:A2 I *L 0.0004 *D AOI22xp33_ASAP7_75t_L
*I *2334:A2 I *L 0.0004 *D AOI22xp33_ASAP7_75t_L
*I *2389:A2 I *L 0.0004 *D AOI22xp33_ASAP7_75t_L
*I *2309:A2 I *L 0.0004 *D AOI22xp33_ASAP7_75t_L
*I *2516:Y O *L 0.0000 *D INVx1_ASAP7_75t_L

*CAP
1 *2347:A2 0
2 *2394:A2 0
3 *2371:A2 0
4 *2321:A2 0
5 *2356:A2 0
6 *2314:A2 0
7 *2363:A2 0
8 *2366:A2 0
9 *2369:A2 0
10 *2340:A2 0
11 *2330:A2 0
12 *2316:A2 0
13 *2310:A2 0
14 *2334:A2 0
15 *2389:A2 0
16 *2309:A2 0

*RES
1 *2516:Y *2347:A2 0
2 *2516:Y *2394:A2 0
3 *2516:Y *2371:A2 0
4 *2516:Y *2321:A2 0
5 *2516:Y *2356:A2 0
6 *2516:Y *2314:A2 0
7 *2516:Y *2363:A2 0
8 *2516:Y *2366:A2 0
9 *2516:Y *2369:A2 0
10 *2516:Y *2340:A2 0
11 *2516:Y *2330:A2 0
12 *2516:Y *2316:A2 0
13 *2516:Y *2310:A2 0
14 *2516:Y *2334:A2 0
15 *2516:Y *2389:A2 0
16 *2516:Y *2309:A2 0
*END

*D_NET *1725 0.000000

*CONN
*I *2514:A I *L 0.0006 *D INVx1_ASAP7_75t_L
*I *2515:Y O *L 0.0000 *D INVx1_ASAP7_75t_L

*CAP
1 *2514:A 0

*RES
1 *2515:Y *2514:A 0
*END

*D_NET *1726 0.000000

*CONN
*I *2380:A2 I *L 0.0004 *D AOI22xp33_ASAP7_75t_L
*I *2337:A2 I *L 0.0004 *D AOI22xp33_ASAP7_75t_L
*I *2351:A2 I *L 0.0004 *D AOI22xp33_ASAP7_75t_L
*I *2368:A2 I *L 0.0004 *D AOI22xp33_ASAP7_75t_L
*I *2362:A2 I *L 0.0004 *D AOI22xp33_ASAP7_75t_L
*I *2341:A2 I *L 0.0004 *D AOI22xp33_ASAP7_75t_L
*I *2346:A2 I *L 0.0004 *D AOI22xp33_ASAP7_75t_L
*I *2311:A2 I *L 0.0004 *D AOI22xp33_ASAP7_75t_L
*I *2386:A2 I *L 0.0004 *D AOI22xp33_ASAP7_75t_L
*I *2398:A2 I *L 0.0004 *D AOI22xp33_ASAP7_75t_L
*I *2326:A2 I *L 0.0004 *D AOI22xp33_ASAP7_75t_L
*I *2373:A2 I *L 0.0004 *D AOI22xp33_ASAP7_75t_L
*I *2354:A2 I *L 0.0004 *D AOI22xp33_ASAP7_75t_L
*I *2313:A2 I *L 0.0004 *D AOI22xp33_ASAP7_75t_L
*I *2317:A2 I *L 0.0004 *D AOI22xp33_ASAP7_75t_L
*I *2383:A2 I *L 0.0004 *D AOI22xp33_ASAP7_75t_L
*I *2514:Y O *L 0.0000 *D INVx1_ASAP7_75t_L

*CAP
1 *2380:A2 0
2 *2337:A2 0
3 *2351:A2 0
4 *2368:A2 0
5 *2362:A2 0
6 *2341:A2 0
7 *2346:A2 0
8 *2311:A2 0
9 *2386:A2 0
10 *2398:A2 0
11 *2326:A2 0
12 *2373:A2 0
13 *2354:A2 0
14 *2313:A2 0
15 *2317:A2 0
16 *2383:A2 0

*RES
1 *2514:Y *2380:A2 0
2 *2514:Y *2337:A2 0
3 *2514:Y *2351:A2 0
4 *2514:Y *2368:A2 0
5 *2514:Y *2362:A2 0
6 *2514:Y *2341:A2 0
7 *2514:Y *2346:A2 0
8 *2514:Y *2311:A2 0
9 *2514:Y *2386:A2 0
10 *2514:Y *2398:A2 0
11 *2514:Y *2326:A2 0
12 *2514:Y *2373:A2 0
13 *2514:Y *2354:A2 0
14 *2514:Y *2313:A2 0
15 *2514:Y *2317:A2 0
16 *2514:Y *2383:A2 0
*END

*D_NET *1727 0.000000

*CONN
*I *2512:A I *L 0.0006 *D INVx1_ASAP7_75t_L
*I *2513:Y O *L 0.0000 *D INVx1_ASAP7_75t_L

*CAP
1 *2512:A 0

*RES
1 *2513:Y *2512:A 0
*END

*D_NET *1728 0.000000

*CONN
*I *2302:B2 I *L 0.0004 *D AOI22xp33_ASAP7_75t_L
*I *2255:B2 I *L 0.0004 *D AOI22xp33_ASAP7_75t_L
*I *2282:B2 I *L 0.0004 *D AOI22xp33_ASAP7_75t_L
*I *2279:B2 I *L 0.0004 *D AOI22xp33_ASAP7_75t_L
*I *2305:B2 I *L 0.0004 *D AOI22xp33_ASAP7_75t_L
*I *2372:B2 I *L 0.0004 *D AOI22xp33_ASAP7_75t_L
*I *2290:B2 I *L 0.0004 *D AOI22xp33_ASAP7_75t_L
*I *2299:B2 I *L 0.0004 *D AOI22xp33_ASAP7_75t_L
*I *2209:B2 I *L 0.0004 *D AOI22xp33_ASAP7_75t_L
*I *2244:B2 I *L 0.0004 *D AOI22xp33_ASAP7_75t_L
*I *2308:B2 I *L 0.0004 *D AOI22xp33_ASAP7_75t_L
*I *2259:B2 I *L 0.0004 *D AOI22xp33_ASAP7_75t_L
*I *2284:B2 I *L 0.0004 *D AOI22xp33_ASAP7_75t_L
*I *2293:B2 I *L 0.0004 *D AOI22xp33_ASAP7_75t_L
*I *2283:B2 I *L 0.0004 *D AOI22xp33_ASAP7_75t_L
*I *2292:B2 I *L 0.0004 *D AOI22xp33_ASAP7_75t_L
*I *2512:Y O *L 0.0000 *D INVx1_ASAP7_75t_L

*CAP
1 *2302:B2 0
2 *2255:B2 0
3 *2282:B2 0
4 *2279:B2 0
5 *2305:B2 0
6 *2372:B2 0
7 *2290:B2 0
8 *2299:B2 0
9 *2209:B2 0
10 *2244:B2 0
11 *2308:B2 0
12 *2259:B2 0
13 *2284:B2 0
14 *2293:B2 0
15 *2283:B2 0
16 *2292:B2 0

*RES
1 *2512:Y *2302:B2 0
2 *2512:Y *2255:B2 0
3 *2512:Y *2282:B2 0
4 *2512:Y *2279:B2 0
5 *2512:Y *2305:B2 0
6 *2512:Y *2372:B2 0
7 *2512:Y *2290:B2 0
8 *2512:Y *2299:B2 0
9 *2512:Y *2209:B2 0
10 *2512:Y *2244:B2 0
11 *2512:Y *2308:B2 0
12 *2512:Y *2259:B2 0
13 *2512:Y *2284:B2 0
14 *2512:Y *2293:B2 0
15 *2512:Y *2283:B2 0
16 *2512:Y *2292:B2 0
*END

*D_NET *1729 0.000000

*CONN
*I *2510:A I *L 0.0006 *D INVx1_ASAP7_75t_L
*I *2511:Y O *L 0.0000 *D INVx1_ASAP7_75t_L

*CAP
1 *2510:A 0

*RES
1 *2511:Y *2510:A 0
*END

*D_NET *1730 0.000000

*CONN
*I *2369:B2 I *L 0.0004 *D AOI22xp33_ASAP7_75t_L
*I *2357:B2 I *L 0.0004 *D AOI22xp33_ASAP7_75t_L
*I *2344:B2 I *L 0.0004 *D AOI22xp33_ASAP7_75t_L
*I *2309:B2 I *L 0.0004 *D AOI22xp33_ASAP7_75t_L
*I *2377:B2 I *L 0.0004 *D AOI22xp33_ASAP7_75t_L
*I *2333:B2 I *L 0.0004 *D AOI22xp33_ASAP7_75t_L
*I *2340:B2 I *L 0.0004 *D AOI22xp33_ASAP7_75t_L
*I *2334:B2 I *L 0.0004 *D AOI22xp33_ASAP7_75t_L
*I *2364:B2 I *L 0.0004 *D AOI22xp33_ASAP7_75t_L
*I *2400:B2 I *L 0.0004 *D AOI22xp33_ASAP7_75t_L
*I *2235:A2 I *L 0.0004 *D AOI22xp33_ASAP7_75t_L
*I *2389:B2 I *L 0.0004 *D AOI22xp33_ASAP7_75t_L
*I *2384:B2 I *L 0.0004 *D AOI22xp33_ASAP7_75t_L
*I *2322:B2 I *L 0.0004 *D AOI22xp33_ASAP7_75t_L
*I *2347:B2 I *L 0.0004 *D AOI22xp33_ASAP7_75t_L
*I *2316:B2 I *L 0.0004 *D AOI22xp33_ASAP7_75t_L
*I *2510:Y O *L 0.0000 *D INVx1_ASAP7_75t_L

*CAP
1 *2369:B2 0
2 *2357:B2 0
3 *2344:B2 0
4 *2309:B2 0
5 *2377:B2 0
6 *2333:B2 0
7 *2340:B2 0
8 *2334:B2 0
9 *2364:B2 0
10 *2400:B2 0
11 *2235:A2 0
12 *2389:B2 0
13 *2384:B2 0
14 *2322:B2 0
15 *2347:B2 0
16 *2316:B2 0

*RES
1 *2510:Y *2369:B2 0
2 *2510:Y *2357:B2 0
3 *2510:Y *2344:B2 0
4 *2510:Y *2309:B2 0
5 *2510:Y *2377:B2 0
6 *2510:Y *2333:B2 0
7 *2510:Y *2340:B2 0
8 *2510:Y *2334:B2 0
9 *2510:Y *2364:B2 0
10 *2510:Y *2400:B2 0
11 *2510:Y *2235:A2 0
12 *2510:Y *2389:B2 0
13 *2510:Y *2384:B2 0
14 *2510:Y *2322:B2 0
15 *2510:Y *2347:B2 0
16 *2510:Y *2316:B2 0
*END

*D_NET *1731 0.000000

*CONN
*I *2508:A I *L 0.0006 *D INVx1_ASAP7_75t_L
*I *2509:Y O *L 0.0000 *D INVx1_ASAP7_75t_L

*CAP
1 *2508:A 0

*RES
1 *2509:Y *2508:A 0
*END

*D_NET *1732 0.000000

*CONN
*I *2288:B2 I *L 0.0004 *D AOI22xp33_ASAP7_75t_L
*I *2247:B2 I *L 0.0004 *D AOI22xp33_ASAP7_75t_L
*I *2249:B2 I *L 0.0004 *D AOI22xp33_ASAP7_75t_L
*I *2268:B2 I *L 0.0004 *D AOI22xp33_ASAP7_75t_L
*I *2265:B2 I *L 0.0004 *D AOI22xp33_ASAP7_75t_L
*I *2254:B2 I *L 0.0004 *D AOI22xp33_ASAP7_75t_L
*I *2291:B2 I *L 0.0004 *D AOI22xp33_ASAP7_75t_L
*I *2286:B2 I *L 0.0004 *D AOI22xp33_ASAP7_75t_L
*I *2211:B2 I *L 0.0004 *D AOI22xp33_ASAP7_75t_L
*I *2304:B2 I *L 0.0004 *D AOI22xp33_ASAP7_75t_L
*I *2280:B2 I *L 0.0004 *D AOI22xp33_ASAP7_75t_L
*I *2294:B2 I *L 0.0004 *D AOI22xp33_ASAP7_75t_L
*I *2264:B2 I *L 0.0004 *D AOI22xp33_ASAP7_75t_L
*I *2251:B2 I *L 0.0004 *D AOI22xp33_ASAP7_75t_L
*I *2269:B2 I *L 0.0004 *D AOI22xp33_ASAP7_75t_L
*I *2277:B2 I *L 0.0004 *D AOI22xp33_ASAP7_75t_L
*I *2508:Y O *L 0.0000 *D INVx1_ASAP7_75t_L

*CAP
1 *2288:B2 0
2 *2247:B2 0
3 *2249:B2 0
4 *2268:B2 0
5 *2265:B2 0
6 *2254:B2 0
7 *2291:B2 0
8 *2286:B2 0
9 *2211:B2 0
10 *2304:B2 0
11 *2280:B2 0
12 *2294:B2 0
13 *2264:B2 0
14 *2251:B2 0
15 *2269:B2 0
16 *2277:B2 0

*RES
1 *2508:Y *2288:B2 0
2 *2508:Y *2247:B2 0
3 *2508:Y *2249:B2 0
4 *2508:Y *2268:B2 0
5 *2508:Y *2265:B2 0
6 *2508:Y *2254:B2 0
7 *2508:Y *2291:B2 0
8 *2508:Y *2286:B2 0
9 *2508:Y *2211:B2 0
10 *2508:Y *2304:B2 0
11 *2508:Y *2280:B2 0
12 *2508:Y *2294:B2 0
13 *2508:Y *2264:B2 0
14 *2508:Y *2251:B2 0
15 *2508:Y *2269:B2 0
16 *2508:Y *2277:B2 0
*END

*D_NET *1733 0.000000

*CONN
*I *2506:A I *L 0.0006 *D INVx1_ASAP7_75t_L
*I *2507:Y O *L 0.0000 *D INVx1_ASAP7_75t_L

*CAP
1 *2506:A 0

*RES
1 *2507:Y *2506:A 0
*END

*D_NET *1734 0.000000

*CONN
*I *2390:B2 I *L 0.0004 *D AOI22xp33_ASAP7_75t_L
*I *2404:B2 I *L 0.0004 *D AOI22xp33_ASAP7_75t_L
*I *2327:B2 I *L 0.0004 *D AOI22xp33_ASAP7_75t_L
*I *2360:B2 I *L 0.0004 *D AOI22xp33_ASAP7_75t_L
*I *2346:B2 I *L 0.0004 *D AOI22xp33_ASAP7_75t_L
*I *2324:B2 I *L 0.0004 *D AOI22xp33_ASAP7_75t_L
*I *2359:B2 I *L 0.0004 *D AOI22xp33_ASAP7_75t_L
*I *2351:B2 I *L 0.0004 *D AOI22xp33_ASAP7_75t_L
*I *2317:B2 I *L 0.0004 *D AOI22xp33_ASAP7_75t_L
*I *2391:B2 I *L 0.0004 *D AOI22xp33_ASAP7_75t_L
*I *2396:B2 I *L 0.0004 *D AOI22xp33_ASAP7_75t_L
*I *2326:B2 I *L 0.0004 *D AOI22xp33_ASAP7_75t_L
*I *2398:B2 I *L 0.0004 *D AOI22xp33_ASAP7_75t_L
*I *2386:B2 I *L 0.0004 *D AOI22xp33_ASAP7_75t_L
*I *2307:B2 I *L 0.0004 *D AOI22xp33_ASAP7_75t_L
*I *2376:B2 I *L 0.0004 *D AOI22xp33_ASAP7_75t_L
*I *2506:Y O *L 0.0000 *D INVx1_ASAP7_75t_L

*CAP
1 *2390:B2 0
2 *2404:B2 0
3 *2327:B2 0
4 *2360:B2 0
5 *2346:B2 0
6 *2324:B2 0
7 *2359:B2 0
8 *2351:B2 0
9 *2317:B2 0
10 *2391:B2 0
11 *2396:B2 0
12 *2326:B2 0
13 *2398:B2 0
14 *2386:B2 0
15 *2307:B2 0
16 *2376:B2 0

*RES
1 *2506:Y *2390:B2 0
2 *2506:Y *2404:B2 0
3 *2506:Y *2327:B2 0
4 *2506:Y *2360:B2 0
5 *2506:Y *2346:B2 0
6 *2506:Y *2324:B2 0
7 *2506:Y *2359:B2 0
8 *2506:Y *2351:B2 0
9 *2506:Y *2317:B2 0
10 *2506:Y *2391:B2 0
11 *2506:Y *2396:B2 0
12 *2506:Y *2326:B2 0
13 *2506:Y *2398:B2 0
14 *2506:Y *2386:B2 0
15 *2506:Y *2307:B2 0
16 *2506:Y *2376:B2 0
*END

*D_NET *1735 0.000000

*CONN
*I *2504:A I *L 0.0006 *D INVx1_ASAP7_75t_L
*I *2505:Y O *L 0.0000 *D INVx1_ASAP7_75t_L

*CAP
1 *2504:A 0

*RES
1 *2505:Y *2504:A 0
*END

*D_NET *1736 0.000000

*CONN
*I *2288:A2 I *L 0.0004 *D AOI22xp33_ASAP7_75t_L
*I *2268:A2 I *L 0.0004 *D AOI22xp33_ASAP7_75t_L
*I *2296:A2 I *L 0.0004 *D AOI22xp33_ASAP7_75t_L
*I *2249:A2 I *L 0.0004 *D AOI22xp33_ASAP7_75t_L
*I *2270:A2 I *L 0.0004 *D AOI22xp33_ASAP7_75t_L
*I *2280:A2 I *L 0.0004 *D AOI22xp33_ASAP7_75t_L
*I *2294:A2 I *L 0.0004 *D AOI22xp33_ASAP7_75t_L
*I *2269:A2 I *L 0.0004 *D AOI22xp33_ASAP7_75t_L
*I *2264:A2 I *L 0.0004 *D AOI22xp33_ASAP7_75t_L
*I *2274:A2 I *L 0.0004 *D AOI22xp33_ASAP7_75t_L
*I *2301:A2 I *L 0.0004 *D AOI22xp33_ASAP7_75t_L
*I *2258:A2 I *L 0.0004 *D AOI22xp33_ASAP7_75t_L
*I *2298:A2 I *L 0.0004 *D AOI22xp33_ASAP7_75t_L
*I *2273:A2 I *L 0.0004 *D AOI22xp33_ASAP7_75t_L
*I *2277:A2 I *L 0.0004 *D AOI22xp33_ASAP7_75t_L
*I *2306:A2 I *L 0.0004 *D AOI22xp33_ASAP7_75t_L
*I *2504:Y O *L 0.0000 *D INVx1_ASAP7_75t_L

*CAP
1 *2288:A2 0
2 *2268:A2 0
3 *2296:A2 0
4 *2249:A2 0
5 *2270:A2 0
6 *2280:A2 0
7 *2294:A2 0
8 *2269:A2 0
9 *2264:A2 0
10 *2274:A2 0
11 *2301:A2 0
12 *2258:A2 0
13 *2298:A2 0
14 *2273:A2 0
15 *2277:A2 0
16 *2306:A2 0

*RES
1 *2504:Y *2288:A2 0
2 *2504:Y *2268:A2 0
3 *2504:Y *2296:A2 0
4 *2504:Y *2249:A2 0
5 *2504:Y *2270:A2 0
6 *2504:Y *2280:A2 0
7 *2504:Y *2294:A2 0
8 *2504:Y *2269:A2 0
9 *2504:Y *2264:A2 0
10 *2504:Y *2274:A2 0
11 *2504:Y *2301:A2 0
12 *2504:Y *2258:A2 0
13 *2504:Y *2298:A2 0
14 *2504:Y *2273:A2 0
15 *2504:Y *2277:A2 0
16 *2504:Y *2306:A2 0
*END

*D_NET *1737 0.000000

*CONN
*I *2502:A I *L 0.0006 *D INVx1_ASAP7_75t_L
*I *2503:Y O *L 0.0000 *D INVx1_ASAP7_75t_L

*CAP
1 *2502:A 0

*RES
1 *2503:Y *2502:A 0
*END

*D_NET *1738 0.000000

*CONN
*I *2385:B2 I *L 0.0004 *D AOI22xp33_ASAP7_75t_L
*I *2329:B2 I *L 0.0004 *D AOI22xp33_ASAP7_75t_L
*I *2348:B2 I *L 0.0004 *D AOI22xp33_ASAP7_75t_L
*I *2319:B2 I *L 0.0004 *D AOI22xp33_ASAP7_75t_L
*I *2350:B2 I *L 0.0004 *D AOI22xp33_ASAP7_75t_L
*I *2332:B2 I *L 0.0004 *D AOI22xp33_ASAP7_75t_L
*I *2315:B2 I *L 0.0004 *D AOI22xp33_ASAP7_75t_L
*I *2343:B2 I *L 0.0004 *D AOI22xp33_ASAP7_75t_L
*I *2378:B2 I *L 0.0004 *D AOI22xp33_ASAP7_75t_L
*I *2365:B2 I *L 0.0004 *D AOI22xp33_ASAP7_75t_L
*I *2381:B2 I *L 0.0004 *D AOI22xp33_ASAP7_75t_L
*I *2375:B2 I *L 0.0004 *D AOI22xp33_ASAP7_75t_L
*I *2355:B2 I *L 0.0004 *D AOI22xp33_ASAP7_75t_L
*I *2403:B2 I *L 0.0004 *D AOI22xp33_ASAP7_75t_L
*I *2370:B2 I *L 0.0004 *D AOI22xp33_ASAP7_75t_L
*I *2399:B2 I *L 0.0004 *D AOI22xp33_ASAP7_75t_L
*I *2502:Y O *L 0.0000 *D INVx1_ASAP7_75t_L

*CAP
1 *2385:B2 0
2 *2329:B2 0
3 *2348:B2 0
4 *2319:B2 0
5 *2350:B2 0
6 *2332:B2 0
7 *2315:B2 0
8 *2343:B2 0
9 *2378:B2 0
10 *2365:B2 0
11 *2381:B2 0
12 *2375:B2 0
13 *2355:B2 0
14 *2403:B2 0
15 *2370:B2 0
16 *2399:B2 0

*RES
1 *2502:Y *2385:B2 0
2 *2502:Y *2329:B2 0
3 *2502:Y *2348:B2 0
4 *2502:Y *2319:B2 0
5 *2502:Y *2350:B2 0
6 *2502:Y *2332:B2 0
7 *2502:Y *2315:B2 0
8 *2502:Y *2343:B2 0
9 *2502:Y *2378:B2 0
10 *2502:Y *2365:B2 0
11 *2502:Y *2381:B2 0
12 *2502:Y *2375:B2 0
13 *2502:Y *2355:B2 0
14 *2502:Y *2403:B2 0
15 *2502:Y *2370:B2 0
16 *2502:Y *2399:B2 0
*END

*D_NET *1739 0.000000

*CONN
*I *2500:A I *L 0.0006 *D INVx1_ASAP7_75t_L
*I *2501:Y O *L 0.0000 *D INVx1_ASAP7_75t_L

*CAP
1 *2500:A 0

*RES
1 *2501:Y *2500:A 0
*END

*D_NET *1740 0.000000

*CONN
*I *2246:A2 I *L 0.0004 *D AOI22xp33_ASAP7_75t_L
*I *2276:A2 I *L 0.0004 *D AOI22xp33_ASAP7_75t_L
*I *2299:A2 I *L 0.0004 *D AOI22xp33_ASAP7_75t_L
*I *2285:A2 I *L 0.0004 *D AOI22xp33_ASAP7_75t_L
*I *2290:A2 I *L 0.0004 *D AOI22xp33_ASAP7_75t_L
*I *2297:A2 I *L 0.0004 *D AOI22xp33_ASAP7_75t_L
*I *2372:A2 I *L 0.0004 *D AOI22xp33_ASAP7_75t_L
*I *2272:A2 I *L 0.0004 *D AOI22xp33_ASAP7_75t_L
*I *2262:A2 I *L 0.0004 *D AOI22xp33_ASAP7_75t_L
*I *2284:A2 I *L 0.0004 *D AOI22xp33_ASAP7_75t_L
*I *2248:A2 I *L 0.0004 *D AOI22xp33_ASAP7_75t_L
*I *2255:A2 I *L 0.0004 *D AOI22xp33_ASAP7_75t_L
*I *2275:A2 I *L 0.0004 *D AOI22xp33_ASAP7_75t_L
*I *2303:A2 I *L 0.0004 *D AOI22xp33_ASAP7_75t_L
*I *2292:A2 I *L 0.0004 *D AOI22xp33_ASAP7_75t_L
*I *2287:A2 I *L 0.0004 *D AOI22xp33_ASAP7_75t_L
*I *2500:Y O *L 0.0000 *D INVx1_ASAP7_75t_L

*CAP
1 *2246:A2 0
2 *2276:A2 0
3 *2299:A2 0
4 *2285:A2 0
5 *2290:A2 0
6 *2297:A2 0
7 *2372:A2 0
8 *2272:A2 0
9 *2262:A2 0
10 *2284:A2 0
11 *2248:A2 0
12 *2255:A2 0
13 *2275:A2 0
14 *2303:A2 0
15 *2292:A2 0
16 *2287:A2 0

*RES
1 *2500:Y *2246:A2 0
2 *2500:Y *2276:A2 0
3 *2500:Y *2299:A2 0
4 *2500:Y *2285:A2 0
5 *2500:Y *2290:A2 0
6 *2500:Y *2297:A2 0
7 *2500:Y *2372:A2 0
8 *2500:Y *2272:A2 0
9 *2500:Y *2262:A2 0
10 *2500:Y *2284:A2 0
11 *2500:Y *2248:A2 0
12 *2500:Y *2255:A2 0
13 *2500:Y *2275:A2 0
14 *2500:Y *2303:A2 0
15 *2500:Y *2292:A2 0
16 *2500:Y *2287:A2 0
*END

*D_NET *1741 0.000000

*CONN
*I *2498:A I *L 0.0006 *D INVx1_ASAP7_75t_L
*I *2499:Y O *L 0.0000 *D INVx1_ASAP7_75t_L

*CAP
1 *2498:A 0

*RES
1 *2499:Y *2498:A 0
*END

*D_NET *1742 0.000000

*CONN
*I *2184:B2 I *L 0.0004 *D AOI22xp33_ASAP7_75t_L
*I *2228:B2 I *L 0.0004 *D AOI22xp33_ASAP7_75t_L
*I *2306:B2 I *L 0.0004 *D AOI22xp33_ASAP7_75t_L
*I *2234:B2 I *L 0.0004 *D AOI22xp33_ASAP7_75t_L
*I *2243:B2 I *L 0.0004 *D AOI22xp33_ASAP7_75t_L
*I *2200:B2 I *L 0.0004 *D AOI22xp33_ASAP7_75t_L
*I *2218:B2 I *L 0.0004 *D AOI22xp33_ASAP7_75t_L
*I *2252:B2 I *L 0.0004 *D AOI22xp33_ASAP7_75t_L
*I *2216:B2 I *L 0.0004 *D AOI22xp33_ASAP7_75t_L
*I *2206:B2 I *L 0.0004 *D AOI22xp33_ASAP7_75t_L
*I *2246:B2 I *L 0.0004 *D AOI22xp33_ASAP7_75t_L
*I *2204:B2 I *L 0.0004 *D AOI22xp33_ASAP7_75t_L
*I *2223:B2 I *L 0.0004 *D AOI22xp33_ASAP7_75t_L
*I *2187:B2 I *L 0.0004 *D AOI22xp33_ASAP7_75t_L
*I *2219:B2 I *L 0.0004 *D AOI22xp33_ASAP7_75t_L
*I *2214:B2 I *L 0.0004 *D AOI22xp33_ASAP7_75t_L
*I *2498:Y O *L 0.0000 *D INVx1_ASAP7_75t_L

*CAP
1 *2184:B2 0
2 *2228:B2 0
3 *2306:B2 0
4 *2234:B2 0
5 *2243:B2 0
6 *2200:B2 0
7 *2218:B2 0
8 *2252:B2 0
9 *2216:B2 0
10 *2206:B2 0
11 *2246:B2 0
12 *2204:B2 0
13 *2223:B2 0
14 *2187:B2 0
15 *2219:B2 0
16 *2214:B2 0

*RES
1 *2498:Y *2184:B2 0
2 *2498:Y *2228:B2 0
3 *2498:Y *2306:B2 0
4 *2498:Y *2234:B2 0
5 *2498:Y *2243:B2 0
6 *2498:Y *2200:B2 0
7 *2498:Y *2218:B2 0
8 *2498:Y *2252:B2 0
9 *2498:Y *2216:B2 0
10 *2498:Y *2206:B2 0
11 *2498:Y *2246:B2 0
12 *2498:Y *2204:B2 0
13 *2498:Y *2223:B2 0
14 *2498:Y *2187:B2 0
15 *2498:Y *2219:B2 0
16 *2498:Y *2214:B2 0
*END

*D_NET *1743 0.000000

*CONN
*I *2448:C I *L 0.0006 *D AND3x1_ASAP7_75t_L
*I *2180:B I *L 0.0005 *D NOR3xp33_ASAP7_75t_L
*I *2454:A I *L 0.0005 *D NAND2xp5_ASAP7_75t_L
*I *2488:B I *L 0.0005 *D NAND2xp5_ASAP7_75t_L
*I *2497:Y O *L 0.0000 *D INVx1_ASAP7_75t_L

*CAP
1 *2448:C 0
2 *2180:B 0
3 *2454:A 0
4 *2488:B 0

*RES
1 *2497:Y *2448:C 0
2 *2497:Y *2180:B 0
3 *2497:Y *2454:A 0
4 *2497:Y *2488:B 0
*END

*D_NET *1744 0.000000

*CONN
*I *2482:B I *L 0.0005 *D NAND2xp5_ASAP7_75t_L
*I *2496:Y O *L 0.0000 *D INVx1_ASAP7_75t_L

*CAP
1 *2482:B 0

*RES
1 *2496:Y *2482:B 0
*END

*D_NET *1745 0.000000

*CONN
*I *2446:C I *L 0.0005 *D NOR3xp33_ASAP7_75t_L
*I *2443:C I *L 0.0005 *D NOR3xp33_ASAP7_75t_L
*I *2486:B I *L 0.0004 *D NOR2xp33_ASAP7_75t_L
*I *2495:Y O *L 0.0000 *D INVx1_ASAP7_75t_L

*CAP
1 *2446:C 0
2 *2443:C 0
3 *2486:B 0

*RES
1 *2495:Y *2446:C 0
2 *2495:Y *2443:C 0
3 *2495:Y *2486:B 0
*END

*D_NET *1746 0.000000

*CONN
*I *2480:B I *L 0.0005 *D NAND2xp5_ASAP7_75t_L
*I *2494:Y O *L 0.0000 *D INVx1_ASAP7_75t_L

*CAP
1 *2480:B 0

*RES
1 *2494:Y *2480:B 0
*END

*D_NET *1747 0.000000

*CONN
*I *2481:B I *L 0.0005 *D NAND2xp5_ASAP7_75t_L
*I *2493:Y O *L 0.0000 *D INVx1_ASAP7_75t_L

*CAP
1 *2481:B 0

*RES
1 *2493:Y *2481:B 0
*END

*D_NET *1748 0.000000

*CONN
*I *2479:B I *L 0.0005 *D NAND2xp5_ASAP7_75t_L
*I *2492:Y O *L 0.0000 *D INVx1_ASAP7_75t_L

*CAP
1 *2479:B 0

*RES
1 *2492:Y *2479:B 0
*END

*D_NET *1749 0.000000

*CONN
*I *2460:B I *L 0.0005 *D AND2x2_ASAP7_75t_L
*I *2490:Y O *L 0.0000 *D NOR2xp33_ASAP7_75t_L

*CAP
1 *2460:B 0

*RES
1 *2490:Y *2460:B 0
*END

*D_NET *1750 0.000000

*CONN
*I *2468:A I *L 0.0003 *D NOR2xp33_ASAP7_75t_L
*I *2459:B I *L 0.0004 *D NOR2xp33_ASAP7_75t_L
*I *2469:A I *L 0.0005 *D NOR3xp33_ASAP7_75t_L
*I *2470:A I *L 0.0003 *D NOR2xp33_ASAP7_75t_L
*I *2491:Y O *L 0.0000 *D NAND2xp5_ASAP7_75t_L

*CAP
1 *2468:A 0
2 *2459:B 0
3 *2469:A 0
4 *2470:A 0

*RES
1 *2491:Y *2468:A 0
2 *2491:Y *2459:B 0
3 *2491:Y *2469:A 0
4 *2491:Y *2470:A 0
*END

*D_NET *1751 0.000000

*CONN
*I *2467:B I *L 0.0005 *D AND2x2_ASAP7_75t_L
*I *2464:B I *L 0.0005 *D AND2x2_ASAP7_75t_L
*I *2463:B I *L 0.0005 *D AND2x2_ASAP7_75t_L
*I *2460:A I *L 0.0005 *D AND2x2_ASAP7_75t_L
*I *2489:Y O *L 0.0000 *D NOR2xp33_ASAP7_75t_L

*CAP
1 *2467:B 0
2 *2464:B 0
3 *2463:B 0
4 *2460:A 0

*RES
1 *2489:Y *2467:B 0
2 *2489:Y *2464:B 0
3 *2489:Y *2463:B 0
4 *2489:Y *2460:A 0
*END

*D_NET *1752 0.000000

*CONN
*I *2446:A I *L 0.0005 *D NOR3xp33_ASAP7_75t_L
*I *2178:A I *L 0.0003 *D NOR2xp33_ASAP7_75t_L
*I *2456:B I *L 0.0004 *D NOR2xp33_ASAP7_75t_L
*I *2488:Y O *L 0.0000 *D NAND2xp5_ASAP7_75t_L

*CAP
1 *2446:A 0
2 *2178:A 0
3 *2456:B 0

*RES
1 *2488:Y *2446:A 0
2 *2488:Y *2178:A 0
3 *2488:Y *2456:B 0
*END

*D_NET *1753 0.000000

*CONN
*I *2455:B I *L 0.0005 *D NAND2xp5_ASAP7_75t_L
*I *2454:B I *L 0.0005 *D NAND2xp5_ASAP7_75t_L
*I *2487:Y O *L 0.0000 *D NOR2xp33_ASAP7_75t_L

*CAP
1 *2455:B 0
2 *2454:B 0

*RES
1 *2487:Y *2455:B 0
2 *2487:Y *2454:B 0
*END

*D_NET *1754 0.000000

*CONN
*I *2448:B I *L 0.0006 *D AND3x1_ASAP7_75t_L
*I *2447:B I *L 0.0006 *D AND3x1_ASAP7_75t_L
*I *2486:Y O *L 0.0000 *D NOR2xp33_ASAP7_75t_L

*CAP
1 *2448:B 0
2 *2447:B 0

*RES
1 *2486:Y *2448:B 0
2 *2486:Y *2447:B 0
*END

*D_NET *1755 0.000000

*CONN
*I *2458:A I *L 0.0003 *D NOR2xp33_ASAP7_75t_L
*I *2484:A I *L 0.0006 *D INVx1_ASAP7_75t_L
*I *2485:Y O *L 0.0000 *D NOR2xp33_ASAP7_75t_L

*CAP
1 *2458:A 0
2 *2484:A 0

*RES
1 *2485:Y *2458:A 0
2 *2485:Y *2484:A 0
*END

*D_NET *1756 0.000000

*CONN
*I *2457:A I *L 0.0005 *D NAND2xp5_ASAP7_75t_L
*I *2484:Y O *L 0.0000 *D INVx1_ASAP7_75t_L

*CAP
1 *2457:A 0

*RES
1 *2484:Y *2457:A 0
*END

*D_NET *1757 0.000000

*CONN
*I *2463:A I *L 0.0005 *D AND2x2_ASAP7_75t_L
*I *2477:Y O *L 0.0000 *D INVx1_ASAP7_75t_L

*CAP
1 *2463:A 0

*RES
1 *2477:Y *2463:A 0
*END

*D_NET *1758 0.000000

*CONN
*I *2477:A I *L 0.0006 *D INVx1_ASAP7_75t_L
*I *2461:A I *L 0.0003 *D NOR2xp33_ASAP7_75t_L
*I *2459:A I *L 0.0003 *D NOR2xp33_ASAP7_75t_L
*I *2462:A I *L 0.0003 *D NOR2xp33_ASAP7_75t_L
*I *2483:Y O *L 0.0000 *D NAND2xp5_ASAP7_75t_L

*CAP
1 *2477:A 0
2 *2461:A 0
3 *2459:A 0
4 *2462:A 0

*RES
1 *2483:Y *2477:A 0
2 *2483:Y *2461:A 0
3 *2483:Y *2459:A 0
4 *2483:Y *2462:A 0
*END

*D_NET *1759 0.000000

*CONN
*I *2466:A I *L 0.0005 *D NOR3xp33_ASAP7_75t_L
*I *2462:B I *L 0.0004 *D NOR2xp33_ASAP7_75t_L
*I *2472:B I *L 0.0004 *D NOR2xp33_ASAP7_75t_L
*I *2474:B I *L 0.0004 *D NOR2xp33_ASAP7_75t_L
*I *2482:Y O *L 0.0000 *D NAND2xp5_ASAP7_75t_L

*CAP
1 *2466:A 0
2 *2462:B 0
3 *2472:B 0
4 *2474:B 0

*RES
1 *2482:Y *2466:A 0
2 *2482:Y *2462:B 0
3 *2482:Y *2472:B 0
4 *2482:Y *2474:B 0
*END

*D_NET *1760 0.000000

*CONN
*I *2464:A I *L 0.0005 *D AND2x2_ASAP7_75t_L
*I *2476:Y O *L 0.0000 *D INVx1_ASAP7_75t_L

*CAP
1 *2464:A 0

*RES
1 *2476:Y *2464:A 0
*END

*D_NET *1761 0.000000

*CONN
*I *2476:A I *L 0.0006 *D INVx1_ASAP7_75t_L
*I *2473:A I *L 0.0003 *D NOR2xp33_ASAP7_75t_L
*I *2468:B I *L 0.0004 *D NOR2xp33_ASAP7_75t_L
*I *2474:A I *L 0.0003 *D NOR2xp33_ASAP7_75t_L
*I *2481:Y O *L 0.0000 *D NAND2xp5_ASAP7_75t_L

*CAP
1 *2476:A 0
2 *2473:A 0
3 *2468:B 0
4 *2474:A 0

*RES
1 *2481:Y *2476:A 0
2 *2481:Y *2473:A 0
3 *2481:Y *2468:B 0
4 *2481:Y *2474:A 0
*END

*D_NET *1762 0.000000

*CONN
*I *2465:A I *L 0.0005 *D NOR3xp33_ASAP7_75t_L
*I *2461:B I *L 0.0004 *D NOR2xp33_ASAP7_75t_L
*I *2471:B I *L 0.0004 *D NOR2xp33_ASAP7_75t_L
*I *2473:B I *L 0.0004 *D NOR2xp33_ASAP7_75t_L
*I *2480:Y O *L 0.0000 *D NAND2xp5_ASAP7_75t_L

*CAP
1 *2465:A 0
2 *2461:B 0
3 *2471:B 0
4 *2473:B 0

*RES
1 *2480:Y *2465:A 0
2 *2480:Y *2461:B 0
3 *2480:Y *2471:B 0
4 *2480:Y *2473:B 0
*END

*D_NET *1763 0.000000

*CONN
*I *2467:A I *L 0.0005 *D AND2x2_ASAP7_75t_L
*I *2475:Y O *L 0.0000 *D INVx1_ASAP7_75t_L

*CAP
1 *2467:A 0

*RES
1 *2475:Y *2467:A 0
*END

*D_NET *1764 0.000000

*CONN
*I *2475:A I *L 0.0006 *D INVx1_ASAP7_75t_L
*I *2471:A I *L 0.0003 *D NOR2xp33_ASAP7_75t_L
*I *2470:B I *L 0.0004 *D NOR2xp33_ASAP7_75t_L
*I *2472:A I *L 0.0003 *D NOR2xp33_ASAP7_75t_L
*I *2479:Y O *L 0.0000 *D NAND2xp5_ASAP7_75t_L

*CAP
1 *2475:A 0
2 *2471:A 0
3 *2470:B 0
4 *2472:A 0

*RES
1 *2479:Y *2475:A 0
2 *2479:Y *2471:A 0
3 *2479:Y *2470:B 0
4 *2479:Y *2472:A 0
*END

*D_NET *1765 0.000000

*CONN
*I *2443:A I *L 0.0005 *D NOR3xp33_ASAP7_75t_L
*I *2242:A I *L 0.0003 *D NOR2xp33_ASAP7_75t_L
*I *2453:B I *L 0.0004 *D NOR2xp33_ASAP7_75t_L
*I *2478:Y O *L 0.0000 *D NAND2xp5_ASAP7_75t_L

*CAP
1 *2443:A 0
2 *2242:A 0
3 *2453:B 0

*RES
1 *2478:Y *2443:A 0
2 *2478:Y *2242:A 0
3 *2478:Y *2453:B 0
*END

*D_NET *1766 0.000000

*CONN
*I *2501:A I *L 0.0006 *D INVx1_ASAP7_75t_L
*I *2261:A2 I *L 0.0004 *D AOI22xp33_ASAP7_75t_L
*I *2259:A2 I *L 0.0004 *D AOI22xp33_ASAP7_75t_L
*I *2282:A2 I *L 0.0004 *D AOI22xp33_ASAP7_75t_L
*I *2295:A2 I *L 0.0004 *D AOI22xp33_ASAP7_75t_L
*I *2279:A2 I *L 0.0004 *D AOI22xp33_ASAP7_75t_L
*I *2308:A2 I *L 0.0004 *D AOI22xp33_ASAP7_75t_L
*I *2250:A2 I *L 0.0004 *D AOI22xp33_ASAP7_75t_L
*I *2252:A2 I *L 0.0004 *D AOI22xp33_ASAP7_75t_L
*I *2271:A2 I *L 0.0004 *D AOI22xp33_ASAP7_75t_L
*I *2256:A2 I *L 0.0004 *D AOI22xp33_ASAP7_75t_L
*I *2305:A2 I *L 0.0004 *D AOI22xp33_ASAP7_75t_L
*I *2302:A2 I *L 0.0004 *D AOI22xp33_ASAP7_75t_L
*I *2283:A2 I *L 0.0004 *D AOI22xp33_ASAP7_75t_L
*I *2266:A2 I *L 0.0004 *D AOI22xp33_ASAP7_75t_L
*I *2267:A2 I *L 0.0004 *D AOI22xp33_ASAP7_75t_L
*I *2293:A2 I *L 0.0004 *D AOI22xp33_ASAP7_75t_L
*I *2474:Y O *L 0.0000 *D NOR2xp33_ASAP7_75t_L

*CAP
1 *2501:A 0
2 *2261:A2 0
3 *2259:A2 0
4 *2282:A2 0
5 *2295:A2 0
6 *2279:A2 0
7 *2308:A2 0
8 *2250:A2 0
9 *2252:A2 0
10 *2271:A2 0
11 *2256:A2 0
12 *2305:A2 0
13 *2302:A2 0
14 *2283:A2 0
15 *2266:A2 0
16 *2267:A2 0
17 *2293:A2 0

*RES
1 *2474:Y *2501:A 0
2 *2474:Y *2261:A2 0
3 *2474:Y *2259:A2 0
4 *2474:Y *2282:A2 0
5 *2474:Y *2295:A2 0
6 *2474:Y *2279:A2 0
7 *2474:Y *2308:A2 0
8 *2474:Y *2250:A2 0
9 *2474:Y *2252:A2 0
10 *2474:Y *2271:A2 0
11 *2474:Y *2256:A2 0
12 *2474:Y *2305:A2 0
13 *2474:Y *2302:A2 0
14 *2474:Y *2283:A2 0
15 *2474:Y *2266:A2 0
16 *2474:Y *2267:A2 0
17 *2474:Y *2293:A2 0
*END

*D_NET *1767 0.000000

*CONN
*I *2503:A I *L 0.0006 *D INVx1_ASAP7_75t_L
*I *2388:B2 I *L 0.0004 *D AOI22xp33_ASAP7_75t_L
*I *2387:B2 I *L 0.0004 *D AOI22xp33_ASAP7_75t_L
*I *2397:B2 I *L 0.0004 *D AOI22xp33_ASAP7_75t_L
*I *2328:B2 I *L 0.0004 *D AOI22xp33_ASAP7_75t_L
*I *2374:B2 I *L 0.0004 *D AOI22xp33_ASAP7_75t_L
*I *2358:B2 I *L 0.0004 *D AOI22xp33_ASAP7_75t_L
*I *2402:B2 I *L 0.0004 *D AOI22xp33_ASAP7_75t_L
*I *2312:B2 I *L 0.0004 *D AOI22xp33_ASAP7_75t_L
*I *2342:B2 I *L 0.0004 *D AOI22xp33_ASAP7_75t_L
*I *2325:B2 I *L 0.0004 *D AOI22xp33_ASAP7_75t_L
*I *2392:B2 I *L 0.0004 *D AOI22xp33_ASAP7_75t_L
*I *2379:B2 I *L 0.0004 *D AOI22xp33_ASAP7_75t_L
*I *2361:B2 I *L 0.0004 *D AOI22xp33_ASAP7_75t_L
*I *2339:B2 I *L 0.0004 *D AOI22xp33_ASAP7_75t_L
*I *2353:B2 I *L 0.0004 *D AOI22xp33_ASAP7_75t_L
*I *2335:B2 I *L 0.0004 *D AOI22xp33_ASAP7_75t_L
*I *2473:Y O *L 0.0000 *D NOR2xp33_ASAP7_75t_L

*CAP
1 *2503:A 0
2 *2388:B2 0
3 *2387:B2 0
4 *2397:B2 0
5 *2328:B2 0
6 *2374:B2 0
7 *2358:B2 0
8 *2402:B2 0
9 *2312:B2 0
10 *2342:B2 0
11 *2325:B2 0
12 *2392:B2 0
13 *2379:B2 0
14 *2361:B2 0
15 *2339:B2 0
16 *2353:B2 0
17 *2335:B2 0

*RES
1 *2473:Y *2503:A 0
2 *2473:Y *2388:B2 0
3 *2473:Y *2387:B2 0
4 *2473:Y *2397:B2 0
5 *2473:Y *2328:B2 0
6 *2473:Y *2374:B2 0
7 *2473:Y *2358:B2 0
8 *2473:Y *2402:B2 0
9 *2473:Y *2312:B2 0
10 *2473:Y *2342:B2 0
11 *2473:Y *2325:B2 0
12 *2473:Y *2392:B2 0
13 *2473:Y *2379:B2 0
14 *2473:Y *2361:B2 0
15 *2473:Y *2339:B2 0
16 *2473:Y *2353:B2 0
17 *2473:Y *2335:B2 0
*END

*D_NET *1768 0.000000

*CONN
*I *2505:A I *L 0.0006 *D INVx1_ASAP7_75t_L
*I *2278:A2 I *L 0.0004 *D AOI22xp33_ASAP7_75t_L
*I *2253:A2 I *L 0.0004 *D AOI22xp33_ASAP7_75t_L
*I *2289:A2 I *L 0.0004 *D AOI22xp33_ASAP7_75t_L
*I *2304:A2 I *L 0.0004 *D AOI22xp33_ASAP7_75t_L
*I *2291:A2 I *L 0.0004 *D AOI22xp33_ASAP7_75t_L
*I *2260:A2 I *L 0.0004 *D AOI22xp33_ASAP7_75t_L
*I *2281:A2 I *L 0.0004 *D AOI22xp33_ASAP7_75t_L
*I *2245:A2 I *L 0.0004 *D AOI22xp33_ASAP7_75t_L
*I *2251:A2 I *L 0.0004 *D AOI22xp33_ASAP7_75t_L
*I *2254:A2 I *L 0.0004 *D AOI22xp33_ASAP7_75t_L
*I *2300:A2 I *L 0.0004 *D AOI22xp33_ASAP7_75t_L
*I *2286:A2 I *L 0.0004 *D AOI22xp33_ASAP7_75t_L
*I *2247:A2 I *L 0.0004 *D AOI22xp33_ASAP7_75t_L
*I *2257:A2 I *L 0.0004 *D AOI22xp33_ASAP7_75t_L
*I *2263:A2 I *L 0.0004 *D AOI22xp33_ASAP7_75t_L
*I *2265:A2 I *L 0.0004 *D AOI22xp33_ASAP7_75t_L
*I *2472:Y O *L 0.0000 *D NOR2xp33_ASAP7_75t_L

*CAP
1 *2505:A 0
2 *2278:A2 0
3 *2253:A2 0
4 *2289:A2 0
5 *2304:A2 0
6 *2291:A2 0
7 *2260:A2 0
8 *2281:A2 0
9 *2245:A2 0
10 *2251:A2 0
11 *2254:A2 0
12 *2300:A2 0
13 *2286:A2 0
14 *2247:A2 0
15 *2257:A2 0
16 *2263:A2 0
17 *2265:A2 0

*RES
1 *2472:Y *2505:A 0
2 *2472:Y *2278:A2 0
3 *2472:Y *2253:A2 0
4 *2472:Y *2289:A2 0
5 *2472:Y *2304:A2 0
6 *2472:Y *2291:A2 0
7 *2472:Y *2260:A2 0
8 *2472:Y *2281:A2 0
9 *2472:Y *2245:A2 0
10 *2472:Y *2251:A2 0
11 *2472:Y *2254:A2 0
12 *2472:Y *2300:A2 0
13 *2472:Y *2286:A2 0
14 *2472:Y *2247:A2 0
15 *2472:Y *2257:A2 0
16 *2472:Y *2263:A2 0
17 *2472:Y *2265:A2 0
*END

*D_NET *1769 0.000000

*CONN
*I *2507:A I *L 0.0006 *D INVx1_ASAP7_75t_L
*I *2373:B2 I *L 0.0004 *D AOI22xp33_ASAP7_75t_L
*I *2318:B2 I *L 0.0004 *D AOI22xp33_ASAP7_75t_L
*I *2313:B2 I *L 0.0004 *D AOI22xp33_ASAP7_75t_L
*I *2331:B2 I *L 0.0004 *D AOI22xp33_ASAP7_75t_L
*I *2354:B2 I *L 0.0004 *D AOI22xp33_ASAP7_75t_L
*I *2383:B2 I *L 0.0004 *D AOI22xp33_ASAP7_75t_L
*I *2336:B2 I *L 0.0004 *D AOI22xp33_ASAP7_75t_L
*I *2337:B2 I *L 0.0004 *D AOI22xp33_ASAP7_75t_L
*I *2311:B2 I *L 0.0004 *D AOI22xp33_ASAP7_75t_L
*I *2362:B2 I *L 0.0004 *D AOI22xp33_ASAP7_75t_L
*I *2341:B2 I *L 0.0004 *D AOI22xp33_ASAP7_75t_L
*I *2349:B2 I *L 0.0004 *D AOI22xp33_ASAP7_75t_L
*I *2401:B2 I *L 0.0004 *D AOI22xp33_ASAP7_75t_L
*I *2368:B2 I *L 0.0004 *D AOI22xp33_ASAP7_75t_L
*I *2380:B2 I *L 0.0004 *D AOI22xp33_ASAP7_75t_L
*I *2338:B2 I *L 0.0004 *D AOI22xp33_ASAP7_75t_L
*I *2471:Y O *L 0.0000 *D NOR2xp33_ASAP7_75t_L

*CAP
1 *2507:A 0
2 *2373:B2 0
3 *2318:B2 0
4 *2313:B2 0
5 *2331:B2 0
6 *2354:B2 0
7 *2383:B2 0
8 *2336:B2 0
9 *2337:B2 0
10 *2311:B2 0
11 *2362:B2 0
12 *2341:B2 0
13 *2349:B2 0
14 *2401:B2 0
15 *2368:B2 0
16 *2380:B2 0
17 *2338:B2 0

*RES
1 *2471:Y *2507:A 0
2 *2471:Y *2373:B2 0
3 *2471:Y *2318:B2 0
4 *2471:Y *2313:B2 0
5 *2471:Y *2331:B2 0
6 *2471:Y *2354:B2 0
7 *2471:Y *2383:B2 0
8 *2471:Y *2336:B2 0
9 *2471:Y *2337:B2 0
10 *2471:Y *2311:B2 0
11 *2471:Y *2362:B2 0
12 *2471:Y *2341:B2 0
13 *2471:Y *2349:B2 0
14 *2471:Y *2401:B2 0
15 *2471:Y *2368:B2 0
16 *2471:Y *2380:B2 0
17 *2471:Y *2338:B2 0
*END

*D_NET *1770 0.000000

*CONN
*I *2509:A I *L 0.0006 *D INVx1_ASAP7_75t_L
*I *2257:B2 I *L 0.0004 *D AOI22xp33_ASAP7_75t_L
*I *2270:B2 I *L 0.0004 *D AOI22xp33_ASAP7_75t_L
*I *2240:B2 I *L 0.0004 *D AOI22xp33_ASAP7_75t_L
*I *2301:B2 I *L 0.0004 *D AOI22xp33_ASAP7_75t_L
*I *2289:B2 I *L 0.0004 *D AOI22xp33_ASAP7_75t_L
*I *2300:B2 I *L 0.0004 *D AOI22xp33_ASAP7_75t_L
*I *2298:B2 I *L 0.0004 *D AOI22xp33_ASAP7_75t_L
*I *2296:B2 I *L 0.0004 *D AOI22xp33_ASAP7_75t_L
*I *2281:B2 I *L 0.0004 *D AOI22xp33_ASAP7_75t_L
*I *2274:B2 I *L 0.0004 *D AOI22xp33_ASAP7_75t_L
*I *2273:B2 I *L 0.0004 *D AOI22xp33_ASAP7_75t_L
*I *2258:B2 I *L 0.0004 *D AOI22xp33_ASAP7_75t_L
*I *2263:B2 I *L 0.0004 *D AOI22xp33_ASAP7_75t_L
*I *2253:B2 I *L 0.0004 *D AOI22xp33_ASAP7_75t_L
*I *2245:B2 I *L 0.0004 *D AOI22xp33_ASAP7_75t_L
*I *2260:B2 I *L 0.0004 *D AOI22xp33_ASAP7_75t_L
*I *2470:Y O *L 0.0000 *D NOR2xp33_ASAP7_75t_L

*CAP
1 *2509:A 0
2 *2257:B2 0
3 *2270:B2 0
4 *2240:B2 0
5 *2301:B2 0
6 *2289:B2 0
7 *2300:B2 0
8 *2298:B2 0
9 *2296:B2 0
10 *2281:B2 0
11 *2274:B2 0
12 *2273:B2 0
13 *2258:B2 0
14 *2263:B2 0
15 *2253:B2 0
16 *2245:B2 0
17 *2260:B2 0

*RES
1 *2470:Y *2509:A 0
2 *2470:Y *2257:B2 0
3 *2470:Y *2270:B2 0
4 *2470:Y *2240:B2 0
5 *2470:Y *2301:B2 0
6 *2470:Y *2289:B2 0
7 *2470:Y *2300:B2 0
8 *2470:Y *2298:B2 0
9 *2470:Y *2296:B2 0
10 *2470:Y *2281:B2 0
11 *2470:Y *2274:B2 0
12 *2470:Y *2273:B2 0
13 *2470:Y *2258:B2 0
14 *2470:Y *2263:B2 0
15 *2470:Y *2253:B2 0
16 *2470:Y *2245:B2 0
17 *2470:Y *2260:B2 0
*END

*D_NET *1771 0.000000

*CONN
*I *2511:A I *L 0.0006 *D INVx1_ASAP7_75t_L
*I *2345:B2 I *L 0.0004 *D AOI22xp33_ASAP7_75t_L
*I *2310:B2 I *L 0.0004 *D AOI22xp33_ASAP7_75t_L
*I *2367:B2 I *L 0.0004 *D AOI22xp33_ASAP7_75t_L
*I *2321:B2 I *L 0.0004 *D AOI22xp33_ASAP7_75t_L
*I *2371:B2 I *L 0.0004 *D AOI22xp33_ASAP7_75t_L
*I *2190:A2 I *L 0.0004 *D AOI22xp33_ASAP7_75t_L
*I *2395:B2 I *L 0.0004 *D AOI22xp33_ASAP7_75t_L
*I *2314:B2 I *L 0.0004 *D AOI22xp33_ASAP7_75t_L
*I *2366:B2 I *L 0.0004 *D AOI22xp33_ASAP7_75t_L
*I *2323:B2 I *L 0.0004 *D AOI22xp33_ASAP7_75t_L
*I *2393:B2 I *L 0.0004 *D AOI22xp33_ASAP7_75t_L
*I *2363:B2 I *L 0.0004 *D AOI22xp33_ASAP7_75t_L
*I *2352:B2 I *L 0.0004 *D AOI22xp33_ASAP7_75t_L
*I *2320:B2 I *L 0.0004 *D AOI22xp33_ASAP7_75t_L
*I *2356:B2 I *L 0.0004 *D AOI22xp33_ASAP7_75t_L
*I *2382:B2 I *L 0.0004 *D AOI22xp33_ASAP7_75t_L
*I *2469:Y O *L 0.0000 *D NOR3xp33_ASAP7_75t_L

*CAP
1 *2511:A 0
2 *2345:B2 0
3 *2310:B2 0
4 *2367:B2 0
5 *2321:B2 0
6 *2371:B2 0
7 *2190:A2 0
8 *2395:B2 0
9 *2314:B2 0
10 *2366:B2 0
11 *2323:B2 0
12 *2393:B2 0
13 *2363:B2 0
14 *2352:B2 0
15 *2320:B2 0
16 *2356:B2 0
17 *2382:B2 0

*RES
1 *2469:Y *2511:A 0
2 *2469:Y *2345:B2 0
3 *2469:Y *2310:B2 0
4 *2469:Y *2367:B2 0
5 *2469:Y *2321:B2 0
6 *2469:Y *2371:B2 0
7 *2469:Y *2190:A2 0
8 *2469:Y *2395:B2 0
9 *2469:Y *2314:B2 0
10 *2469:Y *2366:B2 0
11 *2469:Y *2323:B2 0
12 *2469:Y *2393:B2 0
13 *2469:Y *2363:B2 0
14 *2469:Y *2352:B2 0
15 *2469:Y *2320:B2 0
16 *2469:Y *2356:B2 0
17 *2469:Y *2382:B2 0
*END

*D_NET *1772 0.000000

*CONN
*I *2513:A I *L 0.0006 *D INVx1_ASAP7_75t_L
*I *2271:B2 I *L 0.0004 *D AOI22xp33_ASAP7_75t_L
*I *2297:B2 I *L 0.0004 *D AOI22xp33_ASAP7_75t_L
*I *2248:B2 I *L 0.0004 *D AOI22xp33_ASAP7_75t_L
*I *2262:B2 I *L 0.0004 *D AOI22xp33_ASAP7_75t_L
*I *2285:B2 I *L 0.0004 *D AOI22xp33_ASAP7_75t_L
*I *2186:B2 I *L 0.0004 *D AOI22xp33_ASAP7_75t_L
*I *2250:B2 I *L 0.0004 *D AOI22xp33_ASAP7_75t_L
*I *2272:B2 I *L 0.0004 *D AOI22xp33_ASAP7_75t_L
*I *2287:B2 I *L 0.0004 *D AOI22xp33_ASAP7_75t_L
*I *2266:B2 I *L 0.0004 *D AOI22xp33_ASAP7_75t_L
*I *2303:B2 I *L 0.0004 *D AOI22xp33_ASAP7_75t_L
*I *2256:B2 I *L 0.0004 *D AOI22xp33_ASAP7_75t_L
*I *2275:B2 I *L 0.0004 *D AOI22xp33_ASAP7_75t_L
*I *2295:B2 I *L 0.0004 *D AOI22xp33_ASAP7_75t_L
*I *2261:B2 I *L 0.0004 *D AOI22xp33_ASAP7_75t_L
*I *2198:B2 I *L 0.0004 *D AOI22xp33_ASAP7_75t_L
*I *2468:Y O *L 0.0000 *D NOR2xp33_ASAP7_75t_L

*CAP
1 *2513:A 0
2 *2271:B2 0
3 *2297:B2 0
4 *2248:B2 0
5 *2262:B2 0
6 *2285:B2 0
7 *2186:B2 0
8 *2250:B2 0
9 *2272:B2 0
10 *2287:B2 0
11 *2266:B2 0
12 *2303:B2 0
13 *2256:B2 0
14 *2275:B2 0
15 *2295:B2 0
16 *2261:B2 0
17 *2198:B2 0

*RES
1 *2468:Y *2513:A 0
2 *2468:Y *2271:B2 0
3 *2468:Y *2297:B2 0
4 *2468:Y *2248:B2 0
5 *2468:Y *2262:B2 0
6 *2468:Y *2285:B2 0
7 *2468:Y *2186:B2 0
8 *2468:Y *2250:B2 0
9 *2468:Y *2272:B2 0
10 *2468:Y *2287:B2 0
11 *2468:Y *2266:B2 0
12 *2468:Y *2303:B2 0
13 *2468:Y *2256:B2 0
14 *2468:Y *2275:B2 0
15 *2468:Y *2295:B2 0
16 *2468:Y *2261:B2 0
17 *2468:Y *2198:B2 0
*END

*D_NET *1773 0.000000

*CONN
*I *2515:A I *L 0.0006 *D INVx1_ASAP7_75t_L
*I *2318:A2 I *L 0.0004 *D AOI22xp33_ASAP7_75t_L
*I *2338:A2 I *L 0.0004 *D AOI22xp33_ASAP7_75t_L
*I *2331:A2 I *L 0.0004 *D AOI22xp33_ASAP7_75t_L
*I *2396:A2 I *L 0.0004 *D AOI22xp33_ASAP7_75t_L
*I *2401:A2 I *L 0.0004 *D AOI22xp33_ASAP7_75t_L
*I *2391:A2 I *L 0.0004 *D AOI22xp33_ASAP7_75t_L
*I *2307:A2 I *L 0.0004 *D AOI22xp33_ASAP7_75t_L
*I *2404:A2 I *L 0.0004 *D AOI22xp33_ASAP7_75t_L
*I *2349:A2 I *L 0.0004 *D AOI22xp33_ASAP7_75t_L
*I *2324:A2 I *L 0.0004 *D AOI22xp33_ASAP7_75t_L
*I *2376:A2 I *L 0.0004 *D AOI22xp33_ASAP7_75t_L
*I *2327:A2 I *L 0.0004 *D AOI22xp33_ASAP7_75t_L
*I *2359:A2 I *L 0.0004 *D AOI22xp33_ASAP7_75t_L
*I *2360:A2 I *L 0.0004 *D AOI22xp33_ASAP7_75t_L
*I *2390:A2 I *L 0.0004 *D AOI22xp33_ASAP7_75t_L
*I *2336:A2 I *L 0.0004 *D AOI22xp33_ASAP7_75t_L
*I *2467:Y O *L 0.0000 *D AND2x2_ASAP7_75t_L

*CAP
1 *2515:A 0
2 *2318:A2 0
3 *2338:A2 0
4 *2331:A2 0
5 *2396:A2 0
6 *2401:A2 0
7 *2391:A2 0
8 *2307:A2 0
9 *2404:A2 0
10 *2349:A2 0
11 *2324:A2 0
12 *2376:A2 0
13 *2327:A2 0
14 *2359:A2 0
15 *2360:A2 0
16 *2390:A2 0
17 *2336:A2 0

*RES
1 *2467:Y *2515:A 0
2 *2467:Y *2318:A2 0
3 *2467:Y *2338:A2 0
4 *2467:Y *2331:A2 0
5 *2467:Y *2396:A2 0
6 *2467:Y *2401:A2 0
7 *2467:Y *2391:A2 0
8 *2467:Y *2307:A2 0
9 *2467:Y *2404:A2 0
10 *2467:Y *2349:A2 0
11 *2467:Y *2324:A2 0
12 *2467:Y *2376:A2 0
13 *2467:Y *2327:A2 0
14 *2467:Y *2359:A2 0
15 *2467:Y *2360:A2 0
16 *2467:Y *2390:A2 0
17 *2467:Y *2336:A2 0
*END

*D_NET *1774 0.000000

*CONN
*I *2517:A I *L 0.0006 *D INVx1_ASAP7_75t_L
*I *2395:A2 I *L 0.0004 *D AOI22xp33_ASAP7_75t_L
*I *2345:A2 I *L 0.0004 *D AOI22xp33_ASAP7_75t_L
*I *2344:A2 I *L 0.0004 *D AOI22xp33_ASAP7_75t_L
*I *2400:A2 I *L 0.0004 *D AOI22xp33_ASAP7_75t_L
*I *2377:A2 I *L 0.0004 *D AOI22xp33_ASAP7_75t_L
*I *2357:A2 I *L 0.0004 *D AOI22xp33_ASAP7_75t_L
*I *2367:A2 I *L 0.0004 *D AOI22xp33_ASAP7_75t_L
*I *2323:A2 I *L 0.0004 *D AOI22xp33_ASAP7_75t_L
*I *2364:A2 I *L 0.0004 *D AOI22xp33_ASAP7_75t_L
*I *2382:A2 I *L 0.0004 *D AOI22xp33_ASAP7_75t_L
*I *2393:A2 I *L 0.0004 *D AOI22xp33_ASAP7_75t_L
*I *2320:A2 I *L 0.0004 *D AOI22xp33_ASAP7_75t_L
*I *2352:A2 I *L 0.0004 *D AOI22xp33_ASAP7_75t_L
*I *2322:A2 I *L 0.0004 *D AOI22xp33_ASAP7_75t_L
*I *2384:A2 I *L 0.0004 *D AOI22xp33_ASAP7_75t_L
*I *2333:A2 I *L 0.0004 *D AOI22xp33_ASAP7_75t_L
*I *2466:Y O *L 0.0000 *D NOR3xp33_ASAP7_75t_L

*CAP
1 *2517:A 0
2 *2395:A2 0
3 *2345:A2 0
4 *2344:A2 0
5 *2400:A2 0
6 *2377:A2 0
7 *2357:A2 0
8 *2367:A2 0
9 *2323:A2 0
10 *2364:A2 0
11 *2382:A2 0
12 *2393:A2 0
13 *2320:A2 0
14 *2352:A2 0
15 *2322:A2 0
16 *2384:A2 0
17 *2333:A2 0

*RES
1 *2466:Y *2517:A 0
2 *2466:Y *2395:A2 0
3 *2466:Y *2345:A2 0
4 *2466:Y *2344:A2 0
5 *2466:Y *2400:A2 0
6 *2466:Y *2377:A2 0
7 *2466:Y *2357:A2 0
8 *2466:Y *2367:A2 0
9 *2466:Y *2323:A2 0
10 *2466:Y *2364:A2 0
11 *2466:Y *2382:A2 0
12 *2466:Y *2393:A2 0
13 *2466:Y *2320:A2 0
14 *2466:Y *2352:A2 0
15 *2466:Y *2322:A2 0
16 *2466:Y *2384:A2 0
17 *2466:Y *2333:A2 0
*END

*D_NET *1775 0.000000

*CONN
*I *2519:A I *L 0.0006 *D INVx1_ASAP7_75t_L
*I *2416:B2 I *L 0.0004 *D AOI22xp33_ASAP7_75t_L
*I *2410:B2 I *L 0.0004 *D AOI22xp33_ASAP7_75t_L
*I *2433:B2 I *L 0.0004 *D AOI22xp33_ASAP7_75t_L
*I *2409:B2 I *L 0.0004 *D AOI22xp33_ASAP7_75t_L
*I *2432:B2 I *L 0.0004 *D AOI22xp33_ASAP7_75t_L
*I *2424:B2 I *L 0.0004 *D AOI22xp33_ASAP7_75t_L
*I *2427:B2 I *L 0.0004 *D AOI22xp33_ASAP7_75t_L
*I *2436:B2 I *L 0.0004 *D AOI22xp33_ASAP7_75t_L
*I *2425:B2 I *L 0.0004 *D AOI22xp33_ASAP7_75t_L
*I *2412:B2 I *L 0.0004 *D AOI22xp33_ASAP7_75t_L
*I *2428:B2 I *L 0.0004 *D AOI22xp33_ASAP7_75t_L
*I *2408:B2 I *L 0.0004 *D AOI22xp33_ASAP7_75t_L
*I *2434:B2 I *L 0.0004 *D AOI22xp33_ASAP7_75t_L
*I *2405:B2 I *L 0.0004 *D AOI22xp33_ASAP7_75t_L
*I *2422:B2 I *L 0.0004 *D AOI22xp33_ASAP7_75t_L
*I *2413:B2 I *L 0.0004 *D AOI22xp33_ASAP7_75t_L
*I *2465:Y O *L 0.0000 *D NOR3xp33_ASAP7_75t_L

*CAP
1 *2519:A 0
2 *2416:B2 0
3 *2410:B2 0
4 *2433:B2 0
5 *2409:B2 0
6 *2432:B2 0
7 *2424:B2 0
8 *2427:B2 0
9 *2436:B2 0
10 *2425:B2 0
11 *2412:B2 0
12 *2428:B2 0
13 *2408:B2 0
14 *2434:B2 0
15 *2405:B2 0
16 *2422:B2 0
17 *2413:B2 0

*RES
1 *2465:Y *2519:A 0
2 *2465:Y *2416:B2 0
3 *2465:Y *2410:B2 0
4 *2465:Y *2433:B2 0
5 *2465:Y *2409:B2 0
6 *2465:Y *2432:B2 0
7 *2465:Y *2424:B2 0
8 *2465:Y *2427:B2 0
9 *2465:Y *2436:B2 0
10 *2465:Y *2425:B2 0
11 *2465:Y *2412:B2 0
12 *2465:Y *2428:B2 0
13 *2465:Y *2408:B2 0
14 *2465:Y *2434:B2 0
15 *2465:Y *2405:B2 0
16 *2465:Y *2422:B2 0
17 *2465:Y *2413:B2 0
*END

*D_NET *1776 0.000000

*CONN
*I *2521:A I *L 0.0006 *D INVx1_ASAP7_75t_L
*I *2374:A2 I *L 0.0004 *D AOI22xp33_ASAP7_75t_L
*I *2343:A2 I *L 0.0004 *D AOI22xp33_ASAP7_75t_L
*I *2385:A2 I *L 0.0004 *D AOI22xp33_ASAP7_75t_L
*I *2403:A2 I *L 0.0004 *D AOI22xp33_ASAP7_75t_L
*I *2315:A2 I *L 0.0004 *D AOI22xp33_ASAP7_75t_L
*I *2335:A2 I *L 0.0004 *D AOI22xp33_ASAP7_75t_L
*I *2381:A2 I *L 0.0004 *D AOI22xp33_ASAP7_75t_L
*I *2319:A2 I *L 0.0004 *D AOI22xp33_ASAP7_75t_L
*I *2392:A2 I *L 0.0004 *D AOI22xp33_ASAP7_75t_L
*I *2328:A2 I *L 0.0004 *D AOI22xp33_ASAP7_75t_L
*I *2348:A2 I *L 0.0004 *D AOI22xp33_ASAP7_75t_L
*I *2399:A2 I *L 0.0004 *D AOI22xp33_ASAP7_75t_L
*I *2350:A2 I *L 0.0004 *D AOI22xp33_ASAP7_75t_L
*I *2387:A2 I *L 0.0004 *D AOI22xp33_ASAP7_75t_L
*I *2353:A2 I *L 0.0004 *D AOI22xp33_ASAP7_75t_L
*I *2358:A2 I *L 0.0004 *D AOI22xp33_ASAP7_75t_L
*I *2464:Y O *L 0.0000 *D AND2x2_ASAP7_75t_L

*CAP
1 *2521:A 0
2 *2374:A2 0
3 *2343:A2 0
4 *2385:A2 0
5 *2403:A2 0
6 *2315:A2 0
7 *2335:A2 0
8 *2381:A2 0
9 *2319:A2 0
10 *2392:A2 0
11 *2328:A2 0
12 *2348:A2 0
13 *2399:A2 0
14 *2350:A2 0
15 *2387:A2 0
16 *2353:A2 0
17 *2358:A2 0

*RES
1 *2464:Y *2521:A 0
2 *2464:Y *2374:A2 0
3 *2464:Y *2343:A2 0
4 *2464:Y *2385:A2 0
5 *2464:Y *2403:A2 0
6 *2464:Y *2315:A2 0
7 *2464:Y *2335:A2 0
8 *2464:Y *2381:A2 0
9 *2464:Y *2319:A2 0
10 *2464:Y *2392:A2 0
11 *2464:Y *2328:A2 0
12 *2464:Y *2348:A2 0
13 *2464:Y *2399:A2 0
14 *2464:Y *2350:A2 0
15 *2464:Y *2387:A2 0
16 *2464:Y *2353:A2 0
17 *2464:Y *2358:A2 0
*END

*D_NET *1777 0.000000

*CONN
*I *2523:A I *L 0.0006 *D INVx1_ASAP7_75t_L
*I *2221:A2 I *L 0.0004 *D AOI22xp33_ASAP7_75t_L
*I *2222:A2 I *L 0.0004 *D AOI22xp33_ASAP7_75t_L
*I *2182:A2 I *L 0.0004 *D AOI22xp33_ASAP7_75t_L
*I *2238:A2 I *L 0.0004 *D AOI22xp33_ASAP7_75t_L
*I *2177:A2 I *L 0.0004 *D AOI22xp33_ASAP7_75t_L
*I *2207:A2 I *L 0.0004 *D AOI22xp33_ASAP7_75t_L
*I *2215:A2 I *L 0.0004 *D AOI22xp33_ASAP7_75t_L
*I *2220:A2 I *L 0.0004 *D AOI22xp33_ASAP7_75t_L
*I *2192:A2 I *L 0.0004 *D AOI22xp33_ASAP7_75t_L
*I *2181:A2 I *L 0.0004 *D AOI22xp33_ASAP7_75t_L
*I *2224:A2 I *L 0.0004 *D AOI22xp33_ASAP7_75t_L
*I *2191:A2 I *L 0.0004 *D AOI22xp33_ASAP7_75t_L
*I *2213:A2 I *L 0.0004 *D AOI22xp33_ASAP7_75t_L
*I *2185:A2 I *L 0.0004 *D AOI22xp33_ASAP7_75t_L
*I *2196:A2 I *L 0.0004 *D AOI22xp33_ASAP7_75t_L
*I *2239:A2 I *L 0.0004 *D AOI22xp33_ASAP7_75t_L
*I *2463:Y O *L 0.0000 *D AND2x2_ASAP7_75t_L

*CAP
1 *2523:A 0
2 *2221:A2 0
3 *2222:A2 0
4 *2182:A2 0
5 *2238:A2 0
6 *2177:A2 0
7 *2207:A2 0
8 *2215:A2 0
9 *2220:A2 0
10 *2192:A2 0
11 *2181:A2 0
12 *2224:A2 0
13 *2191:A2 0
14 *2213:A2 0
15 *2185:A2 0
16 *2196:A2 0
17 *2239:A2 0

*RES
1 *2463:Y *2523:A 0
2 *2463:Y *2221:A2 0
3 *2463:Y *2222:A2 0
4 *2463:Y *2182:A2 0
5 *2463:Y *2238:A2 0
6 *2463:Y *2177:A2 0
7 *2463:Y *2207:A2 0
8 *2463:Y *2215:A2 0
9 *2463:Y *2220:A2 0
10 *2463:Y *2192:A2 0
11 *2463:Y *2181:A2 0
12 *2463:Y *2224:A2 0
13 *2463:Y *2191:A2 0
14 *2463:Y *2213:A2 0
15 *2463:Y *2185:A2 0
16 *2463:Y *2196:A2 0
17 *2463:Y *2239:A2 0
*END

*D_NET *1778 0.000000

*CONN
*I *2525:A I *L 0.0006 *D INVx1_ASAP7_75t_L
*I *2228:A2 I *L 0.0004 *D AOI22xp33_ASAP7_75t_L
*I *2193:A2 I *L 0.0004 *D AOI22xp33_ASAP7_75t_L
*I *2241:A2 I *L 0.0004 *D AOI22xp33_ASAP7_75t_L
*I *2187:A2 I *L 0.0004 *D AOI22xp33_ASAP7_75t_L
*I *2244:A2 I *L 0.0004 *D AOI22xp33_ASAP7_75t_L
*I *2211:A2 I *L 0.0004 *D AOI22xp33_ASAP7_75t_L
*I *2240:A2 I *L 0.0004 *D AOI22xp33_ASAP7_75t_L
*I *2200:A2 I *L 0.0004 *D AOI22xp33_ASAP7_75t_L
*I *2225:A2 I *L 0.0004 *D AOI22xp33_ASAP7_75t_L
*I *2231:A2 I *L 0.0004 *D AOI22xp33_ASAP7_75t_L
*I *2201:A2 I *L 0.0004 *D AOI22xp33_ASAP7_75t_L
*I *2219:A2 I *L 0.0004 *D AOI22xp33_ASAP7_75t_L
*I *2214:A2 I *L 0.0004 *D AOI22xp33_ASAP7_75t_L
*I *2218:A2 I *L 0.0004 *D AOI22xp33_ASAP7_75t_L
*I *2202:A2 I *L 0.0004 *D AOI22xp33_ASAP7_75t_L
*I *2394:B2 I *L 0.0004 *D AOI22xp33_ASAP7_75t_L
*I *2462:Y O *L 0.0000 *D NOR2xp33_ASAP7_75t_L

*CAP
1 *2525:A 0
2 *2228:A2 0
3 *2193:A2 0
4 *2241:A2 0
5 *2187:A2 0
6 *2244:A2 0
7 *2211:A2 0
8 *2240:A2 0
9 *2200:A2 0
10 *2225:A2 0
11 *2231:A2 0
12 *2201:A2 0
13 *2219:A2 0
14 *2214:A2 0
15 *2218:A2 0
16 *2202:A2 0
17 *2394:B2 0

*RES
1 *2462:Y *2525:A 0
2 *2462:Y *2228:A2 0
3 *2462:Y *2193:A2 0
4 *2462:Y *2241:A2 0
5 *2462:Y *2187:A2 0
6 *2462:Y *2244:A2 0
7 *2462:Y *2211:A2 0
8 *2462:Y *2240:A2 0
9 *2462:Y *2200:A2 0
10 *2462:Y *2225:A2 0
11 *2462:Y *2231:A2 0
12 *2462:Y *2201:A2 0
13 *2462:Y *2219:A2 0
14 *2462:Y *2214:A2 0
15 *2462:Y *2218:A2 0
16 *2462:Y *2202:A2 0
17 *2462:Y *2394:B2 0
*END

*D_NET *1779 0.000000

*CONN
*I *2527:A I *L 0.0006 *D INVx1_ASAP7_75t_L
*I *2229:B2 I *L 0.0004 *D AOI22xp33_ASAP7_75t_L
*I *2177:B2 I *L 0.0004 *D AOI22xp33_ASAP7_75t_L
*I *2194:B2 I *L 0.0004 *D AOI22xp33_ASAP7_75t_L
*I *2189:B2 I *L 0.0004 *D AOI22xp33_ASAP7_75t_L
*I *2182:B2 I *L 0.0004 *D AOI22xp33_ASAP7_75t_L
*I *2221:B2 I *L 0.0004 *D AOI22xp33_ASAP7_75t_L
*I *2212:B2 I *L 0.0004 *D AOI22xp33_ASAP7_75t_L
*I *2191:B2 I *L 0.0004 *D AOI22xp33_ASAP7_75t_L
*I *2192:B2 I *L 0.0004 *D AOI22xp33_ASAP7_75t_L
*I *2188:B2 I *L 0.0004 *D AOI22xp33_ASAP7_75t_L
*I *2236:B2 I *L 0.0004 *D AOI22xp33_ASAP7_75t_L
*I *2197:B2 I *L 0.0004 *D AOI22xp33_ASAP7_75t_L
*I *2213:B2 I *L 0.0004 *D AOI22xp33_ASAP7_75t_L
*I *2185:B2 I *L 0.0004 *D AOI22xp33_ASAP7_75t_L
*I *2208:B2 I *L 0.0004 *D AOI22xp33_ASAP7_75t_L
*I *2238:B2 I *L 0.0004 *D AOI22xp33_ASAP7_75t_L
*I *2461:Y O *L 0.0000 *D NOR2xp33_ASAP7_75t_L

*CAP
1 *2527:A 0
2 *2229:B2 0
3 *2177:B2 0
4 *2194:B2 0
5 *2189:B2 0
6 *2182:B2 0
7 *2221:B2 0
8 *2212:B2 0
9 *2191:B2 0
10 *2192:B2 0
11 *2188:B2 0
12 *2236:B2 0
13 *2197:B2 0
14 *2213:B2 0
15 *2185:B2 0
16 *2208:B2 0
17 *2238:B2 0

*RES
1 *2461:Y *2527:A 0
2 *2461:Y *2229:B2 0
3 *2461:Y *2177:B2 0
4 *2461:Y *2194:B2 0
5 *2461:Y *2189:B2 0
6 *2461:Y *2182:B2 0
7 *2461:Y *2221:B2 0
8 *2461:Y *2212:B2 0
9 *2461:Y *2191:B2 0
10 *2461:Y *2192:B2 0
11 *2461:Y *2188:B2 0
12 *2461:Y *2236:B2 0
13 *2461:Y *2197:B2 0
14 *2461:Y *2213:B2 0
15 *2461:Y *2185:B2 0
16 *2461:Y *2208:B2 0
17 *2461:Y *2238:B2 0
*END

*D_NET *1780 0.000000

*CONN
*I *2529:A I *L 0.0006 *D INVx1_ASAP7_75t_L
*I *2416:A2 I *L 0.0004 *D AOI22xp33_ASAP7_75t_L
*I *2410:A2 I *L 0.0004 *D AOI22xp33_ASAP7_75t_L
*I *2433:A2 I *L 0.0004 *D AOI22xp33_ASAP7_75t_L
*I *2409:A2 I *L 0.0004 *D AOI22xp33_ASAP7_75t_L
*I *2432:A2 I *L 0.0004 *D AOI22xp33_ASAP7_75t_L
*I *2424:A2 I *L 0.0004 *D AOI22xp33_ASAP7_75t_L
*I *2427:A2 I *L 0.0004 *D AOI22xp33_ASAP7_75t_L
*I *2436:A2 I *L 0.0004 *D AOI22xp33_ASAP7_75t_L
*I *2425:A2 I *L 0.0004 *D AOI22xp33_ASAP7_75t_L
*I *2412:A2 I *L 0.0004 *D AOI22xp33_ASAP7_75t_L
*I *2428:A2 I *L 0.0004 *D AOI22xp33_ASAP7_75t_L
*I *2408:A2 I *L 0.0004 *D AOI22xp33_ASAP7_75t_L
*I *2434:A2 I *L 0.0004 *D AOI22xp33_ASAP7_75t_L
*I *2405:A2 I *L 0.0004 *D AOI22xp33_ASAP7_75t_L
*I *2422:A2 I *L 0.0004 *D AOI22xp33_ASAP7_75t_L
*I *2413:A2 I *L 0.0004 *D AOI22xp33_ASAP7_75t_L
*I *2460:Y O *L 0.0000 *D AND2x2_ASAP7_75t_L

*CAP
1 *2529:A 0
2 *2416:A2 0
3 *2410:A2 0
4 *2433:A2 0
5 *2409:A2 0
6 *2432:A2 0
7 *2424:A2 0
8 *2427:A2 0
9 *2436:A2 0
10 *2425:A2 0
11 *2412:A2 0
12 *2428:A2 0
13 *2408:A2 0
14 *2434:A2 0
15 *2405:A2 0
16 *2422:A2 0
17 *2413:A2 0

*RES
1 *2460:Y *2529:A 0
2 *2460:Y *2416:A2 0
3 *2460:Y *2410:A2 0
4 *2460:Y *2433:A2 0
5 *2460:Y *2409:A2 0
6 *2460:Y *2432:A2 0
7 *2460:Y *2424:A2 0
8 *2460:Y *2427:A2 0
9 *2460:Y *2436:A2 0
10 *2460:Y *2425:A2 0
11 *2460:Y *2412:A2 0
12 *2460:Y *2428:A2 0
13 *2460:Y *2408:A2 0
14 *2460:Y *2434:A2 0
15 *2460:Y *2405:A2 0
16 *2460:Y *2422:A2 0
17 *2460:Y *2413:A2 0
*END

*D_NET *1781 0.000000

*CONN
*I *2499:A I *L 0.0006 *D INVx1_ASAP7_75t_L
*I *2210:B2 I *L 0.0004 *D AOI22xp33_ASAP7_75t_L
*I *2199:B2 I *L 0.0004 *D AOI22xp33_ASAP7_75t_L
*I *2276:B2 I *L 0.0004 *D AOI22xp33_ASAP7_75t_L
*I *2195:B2 I *L 0.0004 *D AOI22xp33_ASAP7_75t_L
*I *2267:B2 I *L 0.0004 *D AOI22xp33_ASAP7_75t_L
*I *2231:B2 I *L 0.0004 *D AOI22xp33_ASAP7_75t_L
*I *2235:B2 I *L 0.0004 *D AOI22xp33_ASAP7_75t_L
*I *2330:B2 I *L 0.0004 *D AOI22xp33_ASAP7_75t_L
*I *2232:B2 I *L 0.0004 *D AOI22xp33_ASAP7_75t_L
*I *2201:B2 I *L 0.0004 *D AOI22xp33_ASAP7_75t_L
*I *2241:B2 I *L 0.0004 *D AOI22xp33_ASAP7_75t_L
*I *2193:B2 I *L 0.0004 *D AOI22xp33_ASAP7_75t_L
*I *2278:B2 I *L 0.0004 *D AOI22xp33_ASAP7_75t_L
*I *2183:B2 I *L 0.0004 *D AOI22xp33_ASAP7_75t_L
*I *2225:B2 I *L 0.0004 *D AOI22xp33_ASAP7_75t_L
*I *2202:B2 I *L 0.0004 *D AOI22xp33_ASAP7_75t_L
*I *2459:Y O *L 0.0000 *D NOR2xp33_ASAP7_75t_L

*CAP
1 *2499:A 0
2 *2210:B2 0
3 *2199:B2 0
4 *2276:B2 0
5 *2195:B2 0
6 *2267:B2 0
7 *2231:B2 0
8 *2235:B2 0
9 *2330:B2 0
10 *2232:B2 0
11 *2201:B2 0
12 *2241:B2 0
13 *2193:B2 0
14 *2278:B2 0
15 *2183:B2 0
16 *2225:B2 0
17 *2202:B2 0

*RES
1 *2459:Y *2499:A 0
2 *2459:Y *2210:B2 0
3 *2459:Y *2199:B2 0
4 *2459:Y *2276:B2 0
5 *2459:Y *2195:B2 0
6 *2459:Y *2267:B2 0
7 *2459:Y *2231:B2 0
8 *2459:Y *2235:B2 0
9 *2459:Y *2330:B2 0
10 *2459:Y *2232:B2 0
11 *2459:Y *2201:B2 0
12 *2459:Y *2241:B2 0
13 *2459:Y *2193:B2 0
14 *2459:Y *2278:B2 0
15 *2459:Y *2183:B2 0
16 *2459:Y *2225:B2 0
17 *2459:Y *2202:B2 0
*END

*D_NET *1782 0.000000

*CONN
*I *2444:A I *L 0.0003 *D NOR2xp33_ASAP7_75t_L
*I *2443:B I *L 0.0005 *D NOR3xp33_ASAP7_75t_L
*I *2445:A I *L 0.0003 *D NOR2xp33_ASAP7_75t_L
*I *2446:B I *L 0.0005 *D NOR3xp33_ASAP7_75t_L
*I *2452:Y O *L 0.0000 *D INVx1_ASAP7_75t_L

*CAP
1 *2444:A 0
2 *2443:B 0
3 *2445:A 0
4 *2446:B 0

*RES
1 *2452:Y *2444:A 0
2 *2452:Y *2443:B 0
3 *2452:Y *2445:A 0
4 *2452:Y *2446:B 0
*END

*D_NET *1783 0.000000

*CONN
*I *2452:A I *L 0.0006 *D INVx1_ASAP7_75t_L
*I *2439:A I *L 0.0005 *D AND2x2_ASAP7_75t_L
*I *2438:A I *L 0.0005 *D AND2x2_ASAP7_75t_L
*I *2447:A I *L 0.0006 *D AND3x1_ASAP7_75t_L
*I *2448:A I *L 0.0006 *D AND3x1_ASAP7_75t_L
*I *2458:Y O *L 0.0000 *D NOR2xp33_ASAP7_75t_L

*CAP
1 *2452:A 0
2 *2439:A 0
3 *2438:A 0
4 *2447:A 0
5 *2448:A 0

*RES
1 *2458:Y *2452:A 0
2 *2458:Y *2439:A 0
3 *2458:Y *2438:A 0
4 *2458:Y *2447:A 0
5 *2458:Y *2448:A 0
*END

*D_NET *1784 0.000000

*CONN
*I *2449:A I *L 0.0005 *D AND2x2_ASAP7_75t_L
*I *2442:B I *L 0.0005 *D NAND2xp5_ASAP7_75t_L
*I *2451:Y O *L 0.0000 *D INVx1_ASAP7_75t_L

*CAP
1 *2449:A 0
2 *2442:B 0

*RES
1 *2451:Y *2449:A 0
2 *2451:Y *2442:B 0
*END

*D_NET *1785 0.000000

*CONN
*I *2451:A I *L 0.0006 *D INVx1_ASAP7_75t_L
*I *2440:A I *L 0.0003 *D NOR2xp33_ASAP7_75t_L
*I *2437:A I *L 0.0003 *D NOR2xp33_ASAP7_75t_L
*I *2441:A I *L 0.0003 *D NOR2xp33_ASAP7_75t_L
*I *2457:Y O *L 0.0000 *D NAND2xp5_ASAP7_75t_L

*CAP
1 *2451:A 0
2 *2440:A 0
3 *2437:A 0
4 *2441:A 0

*RES
1 *2457:Y *2451:A 0
2 *2457:Y *2440:A 0
3 *2457:Y *2437:A 0
4 *2457:Y *2441:A 0
*END

*D_NET *1786 0.000000

*CONN
*I *2449:B I *L 0.0005 *D AND2x2_ASAP7_75t_L
*I *2439:B I *L 0.0005 *D AND2x2_ASAP7_75t_L
*I *2456:Y O *L 0.0000 *D NOR2xp33_ASAP7_75t_L

*CAP
1 *2449:B 0
2 *2439:B 0

*RES
1 *2456:Y *2449:B 0
2 *2456:Y *2439:B 0
*END

*D_NET *1787 0.000000

*CONN
*I *2437:B I *L 0.0004 *D NOR2xp33_ASAP7_75t_L
*I *2444:B I *L 0.0004 *D NOR2xp33_ASAP7_75t_L
*I *2455:Y O *L 0.0000 *D NAND2xp5_ASAP7_75t_L

*CAP
1 *2437:B 0
2 *2444:B 0

*RES
1 *2455:Y *2437:B 0
2 *2455:Y *2444:B 0
*END

*D_NET *1788 0.000000

*CONN
*I *2441:B I *L 0.0004 *D NOR2xp33_ASAP7_75t_L
*I *2445:B I *L 0.0004 *D NOR2xp33_ASAP7_75t_L
*I *2454:Y O *L 0.0000 *D NAND2xp5_ASAP7_75t_L

*CAP
1 *2441:B 0
2 *2445:B 0

*RES
1 *2454:Y *2441:B 0
2 *2454:Y *2445:B 0
*END

*D_NET *1789 0.000000

*CONN
*I *2438:B I *L 0.0005 *D AND2x2_ASAP7_75t_L
*I *2450:A I *L 0.0006 *D INVx1_ASAP7_75t_L
*I *2453:Y O *L 0.0000 *D NOR2xp33_ASAP7_75t_L

*CAP
1 *2438:B 0
2 *2450:A 0

*RES
1 *2453:Y *2438:B 0
2 *2453:Y *2450:A 0
*END

*D_NET *1790 0.000000

*CONN
*I *2440:B I *L 0.0004 *D NOR2xp33_ASAP7_75t_L
*I *2450:Y O *L 0.0000 *D INVx1_ASAP7_75t_L

*CAP
1 *2440:B 0

*RES
1 *2450:Y *2440:B 0
*END

*D_NET *1791 0.000000

*CONN
*I *2178:B I *L 0.0004 *D NOR2xp33_ASAP7_75t_L
*I *2242:B I *L 0.0004 *D NOR2xp33_ASAP7_75t_L
*I *2179:A I *L 0.0005 *D NOR3xp33_ASAP7_75t_L
*I *2180:A I *L 0.0005 *D NOR3xp33_ASAP7_75t_L
*I *2442:Y O *L 0.0000 *D NAND2xp5_ASAP7_75t_L

*CAP
1 *2178:B 0
2 *2242:B 0
3 *2179:A 0
4 *2180:A 0

*RES
1 *2442:Y *2178:B 0
2 *2442:Y *2242:B 0
3 *2442:Y *2179:A 0
4 *2442:Y *2180:A 0
*END

*D_NET *1792 0.000000

*CONN
*I *2143:B I *L 0.0005 *D NAND5xp2_ASAP7_75t_L
*I *2436:Y O *L 0.0000 *D AOI22xp33_ASAP7_75t_L

*CAP
1 *2143:B 0

*RES
1 *2436:Y *2143:B 0
*END

*D_NET *1793 0.000000

*CONN
*I *2140:B I *L 0.0005 *D NAND5xp2_ASAP7_75t_L
*I *2435:Y O *L 0.0000 *D AOI22xp33_ASAP7_75t_L

*CAP
1 *2140:B 0

*RES
1 *2435:Y *2140:B 0
*END

*D_NET *1794 0.000000

*CONN
*I *2141:B I *L 0.0005 *D NAND5xp2_ASAP7_75t_L
*I *2434:Y O *L 0.0000 *D AOI22xp33_ASAP7_75t_L

*CAP
1 *2141:B 0

*RES
1 *2434:Y *2141:B 0
*END

*D_NET *1795 0.000000

*CONN
*I *2114:B I *L 0.0005 *D NAND5xp2_ASAP7_75t_L
*I *2433:Y O *L 0.0000 *D AOI22xp33_ASAP7_75t_L

*CAP
1 *2114:B 0

*RES
1 *2433:Y *2114:B 0
*END

*D_NET *1796 0.000000

*CONN
*I *2139:B I *L 0.0005 *D NAND5xp2_ASAP7_75t_L
*I *2432:Y O *L 0.0000 *D AOI22xp33_ASAP7_75t_L

*CAP
1 *2139:B 0

*RES
1 *2432:Y *2139:B 0
*END

*D_NET *1797 0.000000

*CONN
*I *2136:B I *L 0.0005 *D NAND5xp2_ASAP7_75t_L
*I *2431:Y O *L 0.0000 *D AOI22xp33_ASAP7_75t_L

*CAP
1 *2136:B 0

*RES
1 *2431:Y *2136:B 0
*END

*D_NET *1798 0.000000

*CONN
*I *2138:B I *L 0.0005 *D NAND5xp2_ASAP7_75t_L
*I *2430:Y O *L 0.0000 *D AOI22xp33_ASAP7_75t_L

*CAP
1 *2138:B 0

*RES
1 *2430:Y *2138:B 0
*END

*D_NET *1799 0.000000

*CONN
*I *2124:B I *L 0.0005 *D NAND5xp2_ASAP7_75t_L
*I *2429:Y O *L 0.0000 *D AOI22xp33_ASAP7_75t_L

*CAP
1 *2124:B 0

*RES
1 *2429:Y *2124:B 0
*END

*D_NET *1800 0.000000

*CONN
*I *2137:B I *L 0.0005 *D NAND5xp2_ASAP7_75t_L
*I *2428:Y O *L 0.0000 *D AOI22xp33_ASAP7_75t_L

*CAP
1 *2137:B 0

*RES
1 *2428:Y *2137:B 0
*END

*D_NET *1801 0.000000

*CONN
*I *2130:B I *L 0.0005 *D NAND5xp2_ASAP7_75t_L
*I *2427:Y O *L 0.0000 *D AOI22xp33_ASAP7_75t_L

*CAP
1 *2130:B 0

*RES
1 *2427:Y *2130:B 0
*END

*D_NET *1802 0.000000

*CONN
*I *2131:B I *L 0.0005 *D NAND5xp2_ASAP7_75t_L
*I *2426:Y O *L 0.0000 *D AOI22xp33_ASAP7_75t_L

*CAP
1 *2131:B 0

*RES
1 *2426:Y *2131:B 0
*END

*D_NET *1803 0.000000

*CONN
*I *2133:B I *L 0.0005 *D NAND5xp2_ASAP7_75t_L
*I *2425:Y O *L 0.0000 *D AOI22xp33_ASAP7_75t_L

*CAP
1 *2133:B 0

*RES
1 *2425:Y *2133:B 0
*END

*D_NET *1804 0.000000

*CONN
*I *2132:B I *L 0.0005 *D NAND5xp2_ASAP7_75t_L
*I *2424:Y O *L 0.0000 *D AOI22xp33_ASAP7_75t_L

*CAP
1 *2132:B 0

*RES
1 *2424:Y *2132:B 0
*END

*D_NET *1805 0.000000

*CONN
*I *2127:B I *L 0.0005 *D NAND5xp2_ASAP7_75t_L
*I *2423:Y O *L 0.0000 *D AOI22xp33_ASAP7_75t_L

*CAP
1 *2127:B 0

*RES
1 *2423:Y *2127:B 0
*END

*D_NET *1806 0.000000

*CONN
*I *2144:B I *L 0.0005 *D NAND5xp2_ASAP7_75t_L
*I *2422:Y O *L 0.0000 *D AOI22xp33_ASAP7_75t_L

*CAP
1 *2144:B 0

*RES
1 *2422:Y *2144:B 0
*END

*D_NET *1807 0.000000

*CONN
*I *2119:B I *L 0.0005 *D NAND5xp2_ASAP7_75t_L
*I *2421:Y O *L 0.0000 *D AOI22xp33_ASAP7_75t_L

*CAP
1 *2119:B 0

*RES
1 *2421:Y *2119:B 0
*END

*D_NET *1808 0.000000

*CONN
*I *2113:B I *L 0.0005 *D NAND5xp2_ASAP7_75t_L
*I *2420:Y O *L 0.0000 *D AOI22xp33_ASAP7_75t_L

*CAP
1 *2113:B 0

*RES
1 *2420:Y *2113:B 0
*END

*D_NET *1809 0.000000

*CONN
*I *2125:B I *L 0.0005 *D NAND5xp2_ASAP7_75t_L
*I *2419:Y O *L 0.0000 *D AOI22xp33_ASAP7_75t_L

*CAP
1 *2125:B 0

*RES
1 *2419:Y *2125:B 0
*END

*D_NET *1810 0.000000

*CONN
*I *2126:B I *L 0.0005 *D NAND5xp2_ASAP7_75t_L
*I *2418:Y O *L 0.0000 *D AOI22xp33_ASAP7_75t_L

*CAP
1 *2126:B 0

*RES
1 *2418:Y *2126:B 0
*END

*D_NET *1811 0.000000

*CONN
*I *2134:B I *L 0.0005 *D NAND5xp2_ASAP7_75t_L
*I *2417:Y O *L 0.0000 *D AOI22xp33_ASAP7_75t_L

*CAP
1 *2134:B 0

*RES
1 *2417:Y *2134:B 0
*END

*D_NET *1812 0.000000

*CONN
*I *2123:B I *L 0.0005 *D NAND5xp2_ASAP7_75t_L
*I *2416:Y O *L 0.0000 *D AOI22xp33_ASAP7_75t_L

*CAP
1 *2123:B 0

*RES
1 *2416:Y *2123:B 0
*END

*D_NET *1813 0.000000

*CONN
*I *2120:B I *L 0.0005 *D NAND5xp2_ASAP7_75t_L
*I *2415:Y O *L 0.0000 *D AOI22xp33_ASAP7_75t_L

*CAP
1 *2120:B 0

*RES
1 *2415:Y *2120:B 0
*END

*D_NET *1814 0.000000

*CONN
*I *2122:B I *L 0.0005 *D NAND5xp2_ASAP7_75t_L
*I *2414:Y O *L 0.0000 *D AOI22xp33_ASAP7_75t_L

*CAP
1 *2122:B 0

*RES
1 *2414:Y *2122:B 0
*END

*D_NET *1815 0.000000

*CONN
*I *2115:B I *L 0.0005 *D NAND5xp2_ASAP7_75t_L
*I *2413:Y O *L 0.0000 *D AOI22xp33_ASAP7_75t_L

*CAP
1 *2115:B 0

*RES
1 *2413:Y *2115:B 0
*END

*D_NET *1816 0.000000

*CONN
*I *2121:B I *L 0.0005 *D NAND5xp2_ASAP7_75t_L
*I *2412:Y O *L 0.0000 *D AOI22xp33_ASAP7_75t_L

*CAP
1 *2121:B 0

*RES
1 *2412:Y *2121:B 0
*END

*D_NET *1817 0.000000

*CONN
*I *2116:B I *L 0.0005 *D NAND5xp2_ASAP7_75t_L
*I *2411:Y O *L 0.0000 *D AOI22xp33_ASAP7_75t_L

*CAP
1 *2116:B 0

*RES
1 *2411:Y *2116:B 0
*END

*D_NET *1818 0.000000

*CONN
*I *2118:B I *L 0.0005 *D NAND5xp2_ASAP7_75t_L
*I *2410:Y O *L 0.0000 *D AOI22xp33_ASAP7_75t_L

*CAP
1 *2118:B 0

*RES
1 *2410:Y *2118:B 0
*END

*D_NET *1819 0.000000

*CONN
*I *2117:B I *L 0.0005 *D NAND5xp2_ASAP7_75t_L
*I *2409:Y O *L 0.0000 *D AOI22xp33_ASAP7_75t_L

*CAP
1 *2117:B 0

*RES
1 *2409:Y *2117:B 0
*END

*D_NET *1820 0.000000

*CONN
*I *2128:B I *L 0.0005 *D NAND5xp2_ASAP7_75t_L
*I *2408:Y O *L 0.0000 *D AOI22xp33_ASAP7_75t_L

*CAP
1 *2128:B 0

*RES
1 *2408:Y *2128:B 0
*END

*D_NET *1821 0.000000

*CONN
*I *2142:B I *L 0.0005 *D NAND5xp2_ASAP7_75t_L
*I *2407:Y O *L 0.0000 *D AOI22xp33_ASAP7_75t_L

*CAP
1 *2142:B 0

*RES
1 *2407:Y *2142:B 0
*END

*D_NET *1822 0.000000

*CONN
*I *2129:B I *L 0.0005 *D NAND5xp2_ASAP7_75t_L
*I *2406:Y O *L 0.0000 *D AOI22xp33_ASAP7_75t_L

*CAP
1 *2129:B 0

*RES
1 *2406:Y *2129:B 0
*END

*D_NET *1823 0.000000

*CONN
*I *2135:B I *L 0.0005 *D NAND5xp2_ASAP7_75t_L
*I *2405:Y O *L 0.0000 *D AOI22xp33_ASAP7_75t_L

*CAP
1 *2135:B 0

*RES
1 *2405:Y *2135:B 0
*END

*D_NET *1824 0.000000

*CONN
*I *2135:C I *L 0.0005 *D NAND5xp2_ASAP7_75t_L
*I *2404:Y O *L 0.0000 *D AOI22xp33_ASAP7_75t_L

*CAP
1 *2135:C 0

*RES
1 *2404:Y *2135:C 0
*END

*D_NET *1825 0.000000

*CONN
*I *2143:C I *L 0.0005 *D NAND5xp2_ASAP7_75t_L
*I *2403:Y O *L 0.0000 *D AOI22xp33_ASAP7_75t_L

*CAP
1 *2143:C 0

*RES
1 *2403:Y *2143:C 0
*END

*D_NET *1826 0.000000

*CONN
*I *2135:D I *L 0.0005 *D NAND5xp2_ASAP7_75t_L
*I *2402:Y O *L 0.0000 *D AOI22xp33_ASAP7_75t_L

*CAP
1 *2135:D 0

*RES
1 *2402:Y *2135:D 0
*END

*D_NET *1827 0.000000

*CONN
*I *2143:E I *L 0.0005 *D NAND5xp2_ASAP7_75t_L
*I *2401:Y O *L 0.0000 *D AOI22xp33_ASAP7_75t_L

*CAP
1 *2143:E 0

*RES
1 *2401:Y *2143:E 0
*END

*D_NET *1828 0.000000

*CONN
*I *2174:A I *L 0.0006 *D AND4x1_ASAP7_75t_L
*I *2400:Y O *L 0.0000 *D AOI22xp33_ASAP7_75t_L

*CAP
1 *2174:A 0

*RES
1 *2400:Y *2174:A 0
*END

*D_NET *1829 0.000000

*CONN
*I *2140:C I *L 0.0005 *D NAND5xp2_ASAP7_75t_L
*I *2399:Y O *L 0.0000 *D AOI22xp33_ASAP7_75t_L

*CAP
1 *2140:C 0

*RES
1 *2399:Y *2140:C 0
*END

*D_NET *1830 0.000000

*CONN
*I *2140:D I *L 0.0005 *D NAND5xp2_ASAP7_75t_L
*I *2398:Y O *L 0.0000 *D AOI22xp33_ASAP7_75t_L

*CAP
1 *2140:D 0

*RES
1 *2398:Y *2140:D 0
*END

*D_NET *1831 0.000000

*CONN
*I *2141:C I *L 0.0005 *D NAND5xp2_ASAP7_75t_L
*I *2397:Y O *L 0.0000 *D AOI22xp33_ASAP7_75t_L

*CAP
1 *2141:C 0

*RES
1 *2397:Y *2141:C 0
*END

*D_NET *1832 0.000000

*CONN
*I *2141:D I *L 0.0005 *D NAND5xp2_ASAP7_75t_L
*I *2396:Y O *L 0.0000 *D AOI22xp33_ASAP7_75t_L

*CAP
1 *2141:D 0

*RES
1 *2396:Y *2141:D 0
*END

*D_NET *1833 0.000000

*CONN
*I *2172:A I *L 0.0006 *D AND4x1_ASAP7_75t_L
*I *2395:Y O *L 0.0000 *D AOI22xp33_ASAP7_75t_L

*CAP
1 *2172:A 0

*RES
1 *2395:Y *2172:A 0
*END

*D_NET *1834 0.000000

*CONN
*I *2171:A I *L 0.0006 *D AND4x1_ASAP7_75t_L
*I *2394:Y O *L 0.0000 *D AOI22xp33_ASAP7_75t_L

*CAP
1 *2171:A 0

*RES
1 *2394:Y *2171:A 0
*END

*D_NET *1835 0.000000

*CONN
*I *2169:A I *L 0.0006 *D AND4x1_ASAP7_75t_L
*I *2393:Y O *L 0.0000 *D AOI22xp33_ASAP7_75t_L

*CAP
1 *2169:A 0

*RES
1 *2393:Y *2169:A 0
*END

*D_NET *1836 0.000000

*CONN
*I *2139:C I *L 0.0005 *D NAND5xp2_ASAP7_75t_L
*I *2392:Y O *L 0.0000 *D AOI22xp33_ASAP7_75t_L

*CAP
1 *2139:C 0

*RES
1 *2392:Y *2139:C 0
*END

*D_NET *1837 0.000000

*CONN
*I *2139:D I *L 0.0005 *D NAND5xp2_ASAP7_75t_L
*I *2391:Y O *L 0.0000 *D AOI22xp33_ASAP7_75t_L

*CAP
1 *2139:D 0

*RES
1 *2391:Y *2139:D 0
*END

*D_NET *1838 0.000000

*CONN
*I *2114:C I *L 0.0005 *D NAND5xp2_ASAP7_75t_L
*I *2390:Y O *L 0.0000 *D AOI22xp33_ASAP7_75t_L

*CAP
1 *2114:C 0

*RES
1 *2390:Y *2114:C 0
*END

*D_NET *1839 0.000000

*CONN
*I *2170:A I *L 0.0006 *D AND4x1_ASAP7_75t_L
*I *2389:Y O *L 0.0000 *D AOI22xp33_ASAP7_75t_L

*CAP
1 *2170:A 0

*RES
1 *2389:Y *2170:A 0
*END

*D_NET *1840 0.000000

*CONN
*I *2136:C I *L 0.0005 *D NAND5xp2_ASAP7_75t_L
*I *2388:Y O *L 0.0000 *D AOI22xp33_ASAP7_75t_L

*CAP
1 *2136:C 0

*RES
1 *2388:Y *2136:C 0
*END

*D_NET *1841 0.000000

*CONN
*I *2128:C I *L 0.0005 *D NAND5xp2_ASAP7_75t_L
*I *2387:Y O *L 0.0000 *D AOI22xp33_ASAP7_75t_L

*CAP
1 *2128:C 0

*RES
1 *2387:Y *2128:C 0
*END

*D_NET *1842 0.000000

*CONN
*I *2136:D I *L 0.0005 *D NAND5xp2_ASAP7_75t_L
*I *2386:Y O *L 0.0000 *D AOI22xp33_ASAP7_75t_L

*CAP
1 *2136:D 0

*RES
1 *2386:Y *2136:D 0
*END

*D_NET *1843 0.000000

*CONN
*I *2138:C I *L 0.0005 *D NAND5xp2_ASAP7_75t_L
*I *2385:Y O *L 0.0000 *D AOI22xp33_ASAP7_75t_L

*CAP
1 *2138:C 0

*RES
1 *2385:Y *2138:C 0
*END

*D_NET *1844 0.000000

*CONN
*I *2167:A I *L 0.0006 *D AND4x1_ASAP7_75t_L
*I *2384:Y O *L 0.0000 *D AOI22xp33_ASAP7_75t_L

*CAP
1 *2167:A 0

*RES
1 *2384:Y *2167:A 0
*END

*D_NET *1845 0.000000

*CONN
*I *2138:D I *L 0.0005 *D NAND5xp2_ASAP7_75t_L
*I *2383:Y O *L 0.0000 *D AOI22xp33_ASAP7_75t_L

*CAP
1 *2138:D 0

*RES
1 *2383:Y *2138:D 0
*END

*D_NET *1846 0.000000

*CONN
*I *2168:A I *L 0.0006 *D AND4x1_ASAP7_75t_L
*I *2382:Y O *L 0.0000 *D AOI22xp33_ASAP7_75t_L

*CAP
1 *2168:A 0

*RES
1 *2382:Y *2168:A 0
*END

*D_NET *1847 0.000000

*CONN
*I *2114:D I *L 0.0005 *D NAND5xp2_ASAP7_75t_L
*I *2381:Y O *L 0.0000 *D AOI22xp33_ASAP7_75t_L

*CAP
1 *2114:D 0

*RES
1 *2381:Y *2114:D 0
*END

*D_NET *1848 0.000000

*CONN
*I *2137:C I *L 0.0005 *D NAND5xp2_ASAP7_75t_L
*I *2380:Y O *L 0.0000 *D AOI22xp33_ASAP7_75t_L

*CAP
1 *2137:C 0

*RES
1 *2380:Y *2137:C 0
*END

*D_NET *1849 0.000000

*CONN
*I *2124:C I *L 0.0005 *D NAND5xp2_ASAP7_75t_L
*I *2379:Y O *L 0.0000 *D AOI22xp33_ASAP7_75t_L

*CAP
1 *2124:C 0

*RES
1 *2379:Y *2124:C 0
*END

*D_NET *1850 0.000000

*CONN
*I *2137:D I *L 0.0005 *D NAND5xp2_ASAP7_75t_L
*I *2378:Y O *L 0.0000 *D AOI22xp33_ASAP7_75t_L

*CAP
1 *2137:D 0

*RES
1 *2378:Y *2137:D 0
*END

*D_NET *1851 0.000000

*CONN
*I *2166:A I *L 0.0006 *D AND4x1_ASAP7_75t_L
*I *2377:Y O *L 0.0000 *D AOI22xp33_ASAP7_75t_L

*CAP
1 *2166:A 0

*RES
1 *2377:Y *2166:A 0
*END

*D_NET *1852 0.000000

*CONN
*I *2124:E I *L 0.0005 *D NAND5xp2_ASAP7_75t_L
*I *2376:Y O *L 0.0000 *D AOI22xp33_ASAP7_75t_L

*CAP
1 *2124:E 0

*RES
1 *2376:Y *2124:E 0
*END

*D_NET *1853 0.000000

*CONN
*I *2130:C I *L 0.0005 *D NAND5xp2_ASAP7_75t_L
*I *2375:Y O *L 0.0000 *D AOI22xp33_ASAP7_75t_L

*CAP
1 *2130:C 0

*RES
1 *2375:Y *2130:C 0
*END

*D_NET *1854 0.000000

*CONN
*I *2131:C I *L 0.0005 *D NAND5xp2_ASAP7_75t_L
*I *2374:Y O *L 0.0000 *D AOI22xp33_ASAP7_75t_L

*CAP
1 *2131:C 0

*RES
1 *2374:Y *2131:C 0
*END

*D_NET *1855 0.000000

*CONN
*I *2130:E I *L 0.0005 *D NAND5xp2_ASAP7_75t_L
*I *2373:Y O *L 0.0000 *D AOI22xp33_ASAP7_75t_L

*CAP
1 *2130:E 0

*RES
1 *2373:Y *2130:E 0
*END

*D_NET *1856 0.000000

*CONN
*I *2174:B I *L 0.0006 *D AND4x1_ASAP7_75t_L
*I *2372:Y O *L 0.0000 *D AOI22xp33_ASAP7_75t_L

*CAP
1 *2174:B 0

*RES
1 *2372:Y *2174:B 0
*END

*D_NET *1857 0.000000

*CONN
*I *2158:A I *L 0.0006 *D AND4x1_ASAP7_75t_L
*I *2371:Y O *L 0.0000 *D AOI22xp33_ASAP7_75t_L

*CAP
1 *2158:A 0

*RES
1 *2371:Y *2158:A 0
*END

*D_NET *1858 0.000000

*CONN
*I *2133:C I *L 0.0005 *D NAND5xp2_ASAP7_75t_L
*I *2370:Y O *L 0.0000 *D AOI22xp33_ASAP7_75t_L

*CAP
1 *2133:C 0

*RES
1 *2370:Y *2133:C 0
*END

*D_NET *1859 0.000000

*CONN
*I *2162:A I *L 0.0006 *D AND4x1_ASAP7_75t_L
*I *2369:Y O *L 0.0000 *D AOI22xp33_ASAP7_75t_L

*CAP
1 *2162:A 0

*RES
1 *2369:Y *2162:A 0
*END

*D_NET *1860 0.000000

*CONN
*I *2133:E I *L 0.0005 *D NAND5xp2_ASAP7_75t_L
*I *2368:Y O *L 0.0000 *D AOI22xp33_ASAP7_75t_L

*CAP
1 *2133:E 0

*RES
1 *2368:Y *2133:E 0
*END

*D_NET *1861 0.000000

*CONN
*I *2164:A I *L 0.0006 *D AND4x1_ASAP7_75t_L
*I *2367:Y O *L 0.0000 *D AOI22xp33_ASAP7_75t_L

*CAP
1 *2164:A 0

*RES
1 *2367:Y *2164:A 0
*END

*D_NET *1862 0.000000

*CONN
*I *2165:A I *L 0.0006 *D AND4x1_ASAP7_75t_L
*I *2366:Y O *L 0.0000 *D AOI22xp33_ASAP7_75t_L

*CAP
1 *2165:A 0

*RES
1 *2366:Y *2165:A 0
*END

*D_NET *1863 0.000000

*CONN
*I *2132:C I *L 0.0005 *D NAND5xp2_ASAP7_75t_L
*I *2365:Y O *L 0.0000 *D AOI22xp33_ASAP7_75t_L

*CAP
1 *2132:C 0

*RES
1 *2365:Y *2132:C 0
*END

*D_NET *1864 0.000000

*CONN
*I *2149:A I *L 0.0006 *D AND4x1_ASAP7_75t_L
*I *2364:Y O *L 0.0000 *D AOI22xp33_ASAP7_75t_L

*CAP
1 *2149:A 0

*RES
1 *2364:Y *2149:A 0
*END

*D_NET *1865 0.000000

*CONN
*I *2163:A I *L 0.0006 *D AND4x1_ASAP7_75t_L
*I *2363:Y O *L 0.0000 *D AOI22xp33_ASAP7_75t_L

*CAP
1 *2163:A 0

*RES
1 *2363:Y *2163:A 0
*END

*D_NET *1866 0.000000

*CONN
*I *2128:E I *L 0.0005 *D NAND5xp2_ASAP7_75t_L
*I *2362:Y O *L 0.0000 *D AOI22xp33_ASAP7_75t_L

*CAP
1 *2128:E 0

*RES
1 *2362:Y *2128:E 0
*END

*D_NET *1867 0.000000

*CONN
*I *2127:C I *L 0.0005 *D NAND5xp2_ASAP7_75t_L
*I *2361:Y O *L 0.0000 *D AOI22xp33_ASAP7_75t_L

*CAP
1 *2127:C 0

*RES
1 *2361:Y *2127:C 0
*END

*D_NET *1868 0.000000

*CONN
*I *2144:C I *L 0.0005 *D NAND5xp2_ASAP7_75t_L
*I *2360:Y O *L 0.0000 *D AOI22xp33_ASAP7_75t_L

*CAP
1 *2144:C 0

*RES
1 *2360:Y *2144:C 0
*END

*D_NET *1869 0.000000

*CONN
*I *2127:E I *L 0.0005 *D NAND5xp2_ASAP7_75t_L
*I *2359:Y O *L 0.0000 *D AOI22xp33_ASAP7_75t_L

*CAP
1 *2127:E 0

*RES
1 *2359:Y *2127:E 0
*END

*D_NET *1870 0.000000

*CONN
*I *2144:D I *L 0.0005 *D NAND5xp2_ASAP7_75t_L
*I *2358:Y O *L 0.0000 *D AOI22xp33_ASAP7_75t_L

*CAP
1 *2144:D 0

*RES
1 *2358:Y *2144:D 0
*END

*D_NET *1871 0.000000

*CONN
*I *2145:A I *L 0.0006 *D AND4x1_ASAP7_75t_L
*I *2357:Y O *L 0.0000 *D AOI22xp33_ASAP7_75t_L

*CAP
1 *2145:A 0

*RES
1 *2357:Y *2145:A 0
*END

*D_NET *1872 0.000000

*CONN
*I *2176:A I *L 0.0006 *D AND4x1_ASAP7_75t_L
*I *2356:Y O *L 0.0000 *D AOI22xp33_ASAP7_75t_L

*CAP
1 *2176:A 0

*RES
1 *2356:Y *2176:A 0
*END

*D_NET *1873 0.000000

*CONN
*I *2113:C I *L 0.0005 *D NAND5xp2_ASAP7_75t_L
*I *2355:Y O *L 0.0000 *D AOI22xp33_ASAP7_75t_L

*CAP
1 *2113:C 0

*RES
1 *2355:Y *2113:C 0
*END

*D_NET *1874 0.000000

*CONN
*I *2113:D I *L 0.0005 *D NAND5xp2_ASAP7_75t_L
*I *2354:Y O *L 0.0000 *D AOI22xp33_ASAP7_75t_L

*CAP
1 *2113:D 0

*RES
1 *2354:Y *2113:D 0
*END

*D_NET *1875 0.000000

*CONN
*I *2119:C I *L 0.0005 *D NAND5xp2_ASAP7_75t_L
*I *2353:Y O *L 0.0000 *D AOI22xp33_ASAP7_75t_L

*CAP
1 *2119:C 0

*RES
1 *2353:Y *2119:C 0
*END

*D_NET *1876 0.000000

*CONN
*I *2159:A I *L 0.0006 *D AND4x1_ASAP7_75t_L
*I *2352:Y O *L 0.0000 *D AOI22xp33_ASAP7_75t_L

*CAP
1 *2159:A 0

*RES
1 *2352:Y *2159:A 0
*END

*D_NET *1877 0.000000

*CONN
*I *2119:E I *L 0.0005 *D NAND5xp2_ASAP7_75t_L
*I *2351:Y O *L 0.0000 *D AOI22xp33_ASAP7_75t_L

*CAP
1 *2119:E 0

*RES
1 *2351:Y *2119:E 0
*END

*D_NET *1878 0.000000

*CONN
*I *2125:C I *L 0.0005 *D NAND5xp2_ASAP7_75t_L
*I *2350:Y O *L 0.0000 *D AOI22xp33_ASAP7_75t_L

*CAP
1 *2125:C 0

*RES
1 *2350:Y *2125:C 0
*END

*D_NET *1879 0.000000

*CONN
*I *2125:E I *L 0.0005 *D NAND5xp2_ASAP7_75t_L
*I *2349:Y O *L 0.0000 *D AOI22xp33_ASAP7_75t_L

*CAP
1 *2125:E 0

*RES
1 *2349:Y *2125:E 0
*END

*D_NET *1880 0.000000

*CONN
*I *2126:C I *L 0.0005 *D NAND5xp2_ASAP7_75t_L
*I *2348:Y O *L 0.0000 *D AOI22xp33_ASAP7_75t_L

*CAP
1 *2126:C 0

*RES
1 *2348:Y *2126:C 0
*END

*D_NET *1881 0.000000

*CONN
*I *2153:A I *L 0.0006 *D AND4x1_ASAP7_75t_L
*I *2347:Y O *L 0.0000 *D AOI22xp33_ASAP7_75t_L

*CAP
1 *2153:A 0

*RES
1 *2347:Y *2153:A 0
*END

*D_NET *1882 0.000000

*CONN
*I *2126:E I *L 0.0005 *D NAND5xp2_ASAP7_75t_L
*I *2346:Y O *L 0.0000 *D AOI22xp33_ASAP7_75t_L

*CAP
1 *2126:E 0

*RES
1 *2346:Y *2126:E 0
*END

*D_NET *1883 0.000000

*CONN
*I *2157:A I *L 0.0006 *D AND4x1_ASAP7_75t_L
*I *2345:Y O *L 0.0000 *D AOI22xp33_ASAP7_75t_L

*CAP
1 *2157:A 0

*RES
1 *2345:Y *2157:A 0
*END

*D_NET *1884 0.000000

*CONN
*I *2155:A I *L 0.0006 *D AND4x1_ASAP7_75t_L
*I *2344:Y O *L 0.0000 *D AOI22xp33_ASAP7_75t_L

*CAP
1 *2155:A 0

*RES
1 *2344:Y *2155:A 0
*END

*D_NET *1885 0.000000

*CONN
*I *2134:C I *L 0.0005 *D NAND5xp2_ASAP7_75t_L
*I *2343:Y O *L 0.0000 *D AOI22xp33_ASAP7_75t_L

*CAP
1 *2134:C 0

*RES
1 *2343:Y *2134:C 0
*END

*D_NET *1886 0.000000

*CONN
*I *2123:C I *L 0.0005 *D NAND5xp2_ASAP7_75t_L
*I *2342:Y O *L 0.0000 *D AOI22xp33_ASAP7_75t_L

*CAP
1 *2123:C 0

*RES
1 *2342:Y *2123:C 0
*END

*D_NET *1887 0.000000

*CONN
*I *2123:E I *L 0.0005 *D NAND5xp2_ASAP7_75t_L
*I *2341:Y O *L 0.0000 *D AOI22xp33_ASAP7_75t_L

*CAP
1 *2123:E 0

*RES
1 *2341:Y *2123:E 0
*END

*D_NET *1888 0.000000

*CONN
*I *2154:A I *L 0.0006 *D AND4x1_ASAP7_75t_L
*I *2340:Y O *L 0.0000 *D AOI22xp33_ASAP7_75t_L

*CAP
1 *2154:A 0

*RES
1 *2340:Y *2154:A 0
*END

*D_NET *1889 0.000000

*CONN
*I *2120:C I *L 0.0005 *D NAND5xp2_ASAP7_75t_L
*I *2339:Y O *L 0.0000 *D AOI22xp33_ASAP7_75t_L

*CAP
1 *2120:C 0

*RES
1 *2339:Y *2120:C 0
*END

*D_NET *1890 0.000000

*CONN
*I *2120:D I *L 0.0005 *D NAND5xp2_ASAP7_75t_L
*I *2338:Y O *L 0.0000 *D AOI22xp33_ASAP7_75t_L

*CAP
1 *2120:D 0

*RES
1 *2338:Y *2120:D 0
*END

*D_NET *1891 0.000000

*CONN
*I *2122:C I *L 0.0005 *D NAND5xp2_ASAP7_75t_L
*I *2337:Y O *L 0.0000 *D AOI22xp33_ASAP7_75t_L

*CAP
1 *2122:C 0

*RES
1 *2337:Y *2122:C 0
*END

*D_NET *1892 0.000000

*CONN
*I *2134:D I *L 0.0005 *D NAND5xp2_ASAP7_75t_L
*I *2336:Y O *L 0.0000 *D AOI22xp33_ASAP7_75t_L

*CAP
1 *2134:D 0

*RES
1 *2336:Y *2134:D 0
*END

*D_NET *1893 0.000000

*CONN
*I *2122:D I *L 0.0005 *D NAND5xp2_ASAP7_75t_L
*I *2335:Y O *L 0.0000 *D AOI22xp33_ASAP7_75t_L

*CAP
1 *2122:D 0

*RES
1 *2335:Y *2122:D 0
*END

*D_NET *1894 0.000000

*CONN
*I *2152:A I *L 0.0006 *D AND4x1_ASAP7_75t_L
*I *2334:Y O *L 0.0000 *D AOI22xp33_ASAP7_75t_L

*CAP
1 *2152:A 0

*RES
1 *2334:Y *2152:A 0
*END

*D_NET *1895 0.000000

*CONN
*I *2151:A I *L 0.0006 *D AND4x1_ASAP7_75t_L
*I *2333:Y O *L 0.0000 *D AOI22xp33_ASAP7_75t_L

*CAP
1 *2151:A 0

*RES
1 *2333:Y *2151:A 0
*END

*D_NET *1896 0.000000

*CONN
*I *2121:C I *L 0.0005 *D NAND5xp2_ASAP7_75t_L
*I *2332:Y O *L 0.0000 *D AOI22xp33_ASAP7_75t_L

*CAP
1 *2121:C 0

*RES
1 *2332:Y *2121:C 0
*END

*D_NET *1897 0.000000

*CONN
*I *2121:D I *L 0.0005 *D NAND5xp2_ASAP7_75t_L
*I *2331:Y O *L 0.0000 *D AOI22xp33_ASAP7_75t_L

*CAP
1 *2121:D 0

*RES
1 *2331:Y *2121:D 0
*END

*D_NET *1898 0.000000

*CONN
*I *2150:D I *L 0.0006 *D AND4x1_ASAP7_75t_L
*I *2330:Y O *L 0.0000 *D AOI22xp33_ASAP7_75t_L

*CAP
1 *2150:D 0

*RES
1 *2330:Y *2150:D 0
*END

*D_NET *1899 0.000000

*CONN
*I *2115:C I *L 0.0005 *D NAND5xp2_ASAP7_75t_L
*I *2329:Y O *L 0.0000 *D AOI22xp33_ASAP7_75t_L

*CAP
1 *2115:C 0

*RES
1 *2329:Y *2115:C 0
*END

*D_NET *1900 0.000000

*CONN
*I *2116:C I *L 0.0005 *D NAND5xp2_ASAP7_75t_L
*I *2328:Y O *L 0.0000 *D AOI22xp33_ASAP7_75t_L

*CAP
1 *2116:C 0

*RES
1 *2328:Y *2116:C 0
*END

*D_NET *1901 0.000000

*CONN
*I *2115:E I *L 0.0005 *D NAND5xp2_ASAP7_75t_L
*I *2327:Y O *L 0.0000 *D AOI22xp33_ASAP7_75t_L

*CAP
1 *2115:E 0

*RES
1 *2327:Y *2115:E 0
*END

*D_NET *1902 0.000000

*CONN
*I *2116:D I *L 0.0005 *D NAND5xp2_ASAP7_75t_L
*I *2326:Y O *L 0.0000 *D AOI22xp33_ASAP7_75t_L

*CAP
1 *2116:D 0

*RES
1 *2326:Y *2116:D 0
*END

*D_NET *1903 0.000000

*CONN
*I *2118:C I *L 0.0005 *D NAND5xp2_ASAP7_75t_L
*I *2325:Y O *L 0.0000 *D AOI22xp33_ASAP7_75t_L

*CAP
1 *2118:C 0

*RES
1 *2325:Y *2118:C 0
*END

*D_NET *1904 0.000000

*CONN
*I *2118:E I *L 0.0005 *D NAND5xp2_ASAP7_75t_L
*I *2324:Y O *L 0.0000 *D AOI22xp33_ASAP7_75t_L

*CAP
1 *2118:E 0

*RES
1 *2324:Y *2118:E 0
*END

*D_NET *1905 0.000000

*CONN
*I *2147:A I *L 0.0006 *D AND4x1_ASAP7_75t_L
*I *2323:Y O *L 0.0000 *D AOI22xp33_ASAP7_75t_L

*CAP
1 *2147:A 0

*RES
1 *2323:Y *2147:A 0
*END

*D_NET *1906 0.000000

*CONN
*I *2148:A I *L 0.0006 *D AND4x1_ASAP7_75t_L
*I *2322:Y O *L 0.0000 *D AOI22xp33_ASAP7_75t_L

*CAP
1 *2148:A 0

*RES
1 *2322:Y *2148:A 0
*END

*D_NET *1907 0.000000

*CONN
*I *2173:A I *L 0.0006 *D AND4x1_ASAP7_75t_L
*I *2321:Y O *L 0.0000 *D AOI22xp33_ASAP7_75t_L

*CAP
1 *2173:A 0

*RES
1 *2321:Y *2173:A 0
*END

*D_NET *1908 0.000000

*CONN
*I *2160:A I *L 0.0006 *D AND4x1_ASAP7_75t_L
*I *2320:Y O *L 0.0000 *D AOI22xp33_ASAP7_75t_L

*CAP
1 *2160:A 0

*RES
1 *2320:Y *2160:A 0
*END

*D_NET *1909 0.000000

*CONN
*I *2117:C I *L 0.0005 *D NAND5xp2_ASAP7_75t_L
*I *2319:Y O *L 0.0000 *D AOI22xp33_ASAP7_75t_L

*CAP
1 *2117:C 0

*RES
1 *2319:Y *2117:C 0
*END

*D_NET *1910 0.000000

*CONN
*I *2117:D I *L 0.0005 *D NAND5xp2_ASAP7_75t_L
*I *2318:Y O *L 0.0000 *D AOI22xp33_ASAP7_75t_L

*CAP
1 *2117:D 0

*RES
1 *2318:Y *2117:D 0
*END

*D_NET *1911 0.000000

*CONN
*I *2132:D I *L 0.0005 *D NAND5xp2_ASAP7_75t_L
*I *2317:Y O *L 0.0000 *D AOI22xp33_ASAP7_75t_L

*CAP
1 *2132:D 0

*RES
1 *2317:Y *2132:D 0
*END

*D_NET *1912 0.000000

*CONN
*I *2146:A I *L 0.0006 *D AND4x1_ASAP7_75t_L
*I *2316:Y O *L 0.0000 *D AOI22xp33_ASAP7_75t_L

*CAP
1 *2146:A 0

*RES
1 *2316:Y *2146:A 0
*END

*D_NET *1913 0.000000

*CONN
*I *2142:C I *L 0.0005 *D NAND5xp2_ASAP7_75t_L
*I *2315:Y O *L 0.0000 *D AOI22xp33_ASAP7_75t_L

*CAP
1 *2142:C 0

*RES
1 *2315:Y *2142:C 0
*END

*D_NET *1914 0.000000

*CONN
*I *2156:A I *L 0.0006 *D AND4x1_ASAP7_75t_L
*I *2314:Y O *L 0.0000 *D AOI22xp33_ASAP7_75t_L

*CAP
1 *2156:A 0

*RES
1 *2314:Y *2156:A 0
*END

*D_NET *1915 0.000000

*CONN
*I *2142:D I *L 0.0005 *D NAND5xp2_ASAP7_75t_L
*I *2313:Y O *L 0.0000 *D AOI22xp33_ASAP7_75t_L

*CAP
1 *2142:D 0

*RES
1 *2313:Y *2142:D 0
*END

*D_NET *1916 0.000000

*CONN
*I *2129:C I *L 0.0005 *D NAND5xp2_ASAP7_75t_L
*I *2312:Y O *L 0.0000 *D AOI22xp33_ASAP7_75t_L

*CAP
1 *2129:C 0

*RES
1 *2312:Y *2129:C 0
*END

*D_NET *1917 0.000000

*CONN
*I *2129:E I *L 0.0005 *D NAND5xp2_ASAP7_75t_L
*I *2311:Y O *L 0.0000 *D AOI22xp33_ASAP7_75t_L

*CAP
1 *2129:E 0

*RES
1 *2311:Y *2129:E 0
*END

*D_NET *1918 0.000000

*CONN
*I *2161:A I *L 0.0006 *D AND4x1_ASAP7_75t_L
*I *2310:Y O *L 0.0000 *D AOI22xp33_ASAP7_75t_L

*CAP
1 *2161:A 0

*RES
1 *2310:Y *2161:A 0
*END

*D_NET *1919 0.000000

*CONN
*I *2175:A I *L 0.0006 *D AND4x1_ASAP7_75t_L
*I *2309:Y O *L 0.0000 *D AOI22xp33_ASAP7_75t_L

*CAP
1 *2175:A 0

*RES
1 *2309:Y *2175:A 0
*END

*D_NET *1920 0.000000

*CONN
*I *2175:C I *L 0.0006 *D AND4x1_ASAP7_75t_L
*I *2308:Y O *L 0.0000 *D AOI22xp33_ASAP7_75t_L

*CAP
1 *2175:C 0

*RES
1 *2308:Y *2175:C 0
*END

*D_NET *1921 0.000000

*CONN
*I *2131:D I *L 0.0005 *D NAND5xp2_ASAP7_75t_L
*I *2307:Y O *L 0.0000 *D AOI22xp33_ASAP7_75t_L

*CAP
1 *2131:D 0

*RES
1 *2307:Y *2131:D 0
*END

*D_NET *1922 0.000000

*CONN
*I *2174:D I *L 0.0006 *D AND4x1_ASAP7_75t_L
*I *2306:Y O *L 0.0000 *D AOI22xp33_ASAP7_75t_L

*CAP
1 *2174:D 0

*RES
1 *2306:Y *2174:D 0
*END

*D_NET *1923 0.000000

*CONN
*I *2172:B I *L 0.0006 *D AND4x1_ASAP7_75t_L
*I *2305:Y O *L 0.0000 *D AOI22xp33_ASAP7_75t_L

*CAP
1 *2172:B 0

*RES
1 *2305:Y *2172:B 0
*END

*D_NET *1924 0.000000

*CONN
*I *2172:C I *L 0.0006 *D AND4x1_ASAP7_75t_L
*I *2304:Y O *L 0.0000 *D AOI22xp33_ASAP7_75t_L

*CAP
1 *2172:C 0

*RES
1 *2304:Y *2172:C 0
*END

*D_NET *1925 0.000000

*CONN
*I *2171:B I *L 0.0006 *D AND4x1_ASAP7_75t_L
*I *2303:Y O *L 0.0000 *D AOI22xp33_ASAP7_75t_L

*CAP
1 *2171:B 0

*RES
1 *2303:Y *2171:B 0
*END

*D_NET *1926 0.000000

*CONN
*I *2169:B I *L 0.0006 *D AND4x1_ASAP7_75t_L
*I *2302:Y O *L 0.0000 *D AOI22xp33_ASAP7_75t_L

*CAP
1 *2169:B 0

*RES
1 *2302:Y *2169:B 0
*END

*D_NET *1927 0.000000

*CONN
*I *2169:C I *L 0.0006 *D AND4x1_ASAP7_75t_L
*I *2301:Y O *L 0.0000 *D AOI22xp33_ASAP7_75t_L

*CAP
1 *2169:C 0

*RES
1 *2301:Y *2169:C 0
*END

*D_NET *1928 0.000000

*CONN
*I *2171:C I *L 0.0006 *D AND4x1_ASAP7_75t_L
*I *2300:Y O *L 0.0000 *D AOI22xp33_ASAP7_75t_L

*CAP
1 *2171:C 0

*RES
1 *2300:Y *2171:C 0
*END

*D_NET *1929 0.000000

*CONN
*I *2170:B I *L 0.0006 *D AND4x1_ASAP7_75t_L
*I *2299:Y O *L 0.0000 *D AOI22xp33_ASAP7_75t_L

*CAP
1 *2170:B 0

*RES
1 *2299:Y *2170:B 0
*END

*D_NET *1930 0.000000

*CONN
*I *2170:C I *L 0.0006 *D AND4x1_ASAP7_75t_L
*I *2298:Y O *L 0.0000 *D AOI22xp33_ASAP7_75t_L

*CAP
1 *2170:C 0

*RES
1 *2298:Y *2170:C 0
*END

*D_NET *1931 0.000000

*CONN
*I *2156:B I *L 0.0006 *D AND4x1_ASAP7_75t_L
*I *2297:Y O *L 0.0000 *D AOI22xp33_ASAP7_75t_L

*CAP
1 *2156:B 0

*RES
1 *2297:Y *2156:B 0
*END

*D_NET *1932 0.000000

*CONN
*I *2167:B I *L 0.0006 *D AND4x1_ASAP7_75t_L
*I *2296:Y O *L 0.0000 *D AOI22xp33_ASAP7_75t_L

*CAP
1 *2167:B 0

*RES
1 *2296:Y *2167:B 0
*END

*D_NET *1933 0.000000

*CONN
*I *2168:B I *L 0.0006 *D AND4x1_ASAP7_75t_L
*I *2295:Y O *L 0.0000 *D AOI22xp33_ASAP7_75t_L

*CAP
1 *2168:B 0

*RES
1 *2295:Y *2168:B 0
*END

*D_NET *1934 0.000000

*CONN
*I *2168:C I *L 0.0006 *D AND4x1_ASAP7_75t_L
*I *2294:Y O *L 0.0000 *D AOI22xp33_ASAP7_75t_L

*CAP
1 *2168:C 0

*RES
1 *2294:Y *2168:C 0
*END

*D_NET *1935 0.000000

*CONN
*I *2167:C I *L 0.0006 *D AND4x1_ASAP7_75t_L
*I *2293:Y O *L 0.0000 *D AOI22xp33_ASAP7_75t_L

*CAP
1 *2167:C 0

*RES
1 *2293:Y *2167:C 0
*END

*D_NET *1936 0.000000

*CONN
*I *2166:B I *L 0.0006 *D AND4x1_ASAP7_75t_L
*I *2292:Y O *L 0.0000 *D AOI22xp33_ASAP7_75t_L

*CAP
1 *2166:B 0

*RES
1 *2292:Y *2166:B 0
*END

*D_NET *1937 0.000000

*CONN
*I *2166:C I *L 0.0006 *D AND4x1_ASAP7_75t_L
*I *2291:Y O *L 0.0000 *D AOI22xp33_ASAP7_75t_L

*CAP
1 *2166:C 0

*RES
1 *2291:Y *2166:C 0
*END

*D_NET *1938 0.000000

*CONN
*I *2165:B I *L 0.0006 *D AND4x1_ASAP7_75t_L
*I *2290:Y O *L 0.0000 *D AOI22xp33_ASAP7_75t_L

*CAP
1 *2165:B 0

*RES
1 *2290:Y *2165:B 0
*END

*D_NET *1939 0.000000

*CONN
*I *2165:C I *L 0.0006 *D AND4x1_ASAP7_75t_L
*I *2289:Y O *L 0.0000 *D AOI22xp33_ASAP7_75t_L

*CAP
1 *2165:C 0

*RES
1 *2289:Y *2165:C 0
*END

*D_NET *1940 0.000000

*CONN
*I *2162:B I *L 0.0006 *D AND4x1_ASAP7_75t_L
*I *2288:Y O *L 0.0000 *D AOI22xp33_ASAP7_75t_L

*CAP
1 *2162:B 0

*RES
1 *2288:Y *2162:B 0
*END

*D_NET *1941 0.000000

*CONN
*I *2164:B I *L 0.0006 *D AND4x1_ASAP7_75t_L
*I *2287:Y O *L 0.0000 *D AOI22xp33_ASAP7_75t_L

*CAP
1 *2164:B 0

*RES
1 *2287:Y *2164:B 0
*END

*D_NET *1942 0.000000

*CONN
*I *2164:C I *L 0.0006 *D AND4x1_ASAP7_75t_L
*I *2286:Y O *L 0.0000 *D AOI22xp33_ASAP7_75t_L

*CAP
1 *2164:C 0

*RES
1 *2286:Y *2164:C 0
*END

*D_NET *1943 0.000000

*CONN
*I *2158:B I *L 0.0006 *D AND4x1_ASAP7_75t_L
*I *2285:Y O *L 0.0000 *D AOI22xp33_ASAP7_75t_L

*CAP
1 *2158:B 0

*RES
1 *2285:Y *2158:B 0
*END

*D_NET *1944 0.000000

*CONN
*I *2162:C I *L 0.0006 *D AND4x1_ASAP7_75t_L
*I *2284:Y O *L 0.0000 *D AOI22xp33_ASAP7_75t_L

*CAP
1 *2162:C 0

*RES
1 *2284:Y *2162:C 0
*END

*D_NET *1945 0.000000

*CONN
*I *2149:B I *L 0.0006 *D AND4x1_ASAP7_75t_L
*I *2283:Y O *L 0.0000 *D AOI22xp33_ASAP7_75t_L

*CAP
1 *2149:B 0

*RES
1 *2283:Y *2149:B 0
*END

*D_NET *1946 0.000000

*CONN
*I *2163:B I *L 0.0006 *D AND4x1_ASAP7_75t_L
*I *2282:Y O *L 0.0000 *D AOI22xp33_ASAP7_75t_L

*CAP
1 *2163:B 0

*RES
1 *2282:Y *2163:B 0
*END

*D_NET *1947 0.000000

*CONN
*I *2163:C I *L 0.0006 *D AND4x1_ASAP7_75t_L
*I *2281:Y O *L 0.0000 *D AOI22xp33_ASAP7_75t_L

*CAP
1 *2163:C 0

*RES
1 *2281:Y *2163:C 0
*END

*D_NET *1948 0.000000

*CONN
*I *2158:C I *L 0.0006 *D AND4x1_ASAP7_75t_L
*I *2280:Y O *L 0.0000 *D AOI22xp33_ASAP7_75t_L

*CAP
1 *2158:C 0

*RES
1 *2280:Y *2158:C 0
*END

*D_NET *1949 0.000000

*CONN
*I *2176:B I *L 0.0006 *D AND4x1_ASAP7_75t_L
*I *2279:Y O *L 0.0000 *D AOI22xp33_ASAP7_75t_L

*CAP
1 *2176:B 0

*RES
1 *2279:Y *2176:B 0
*END

*D_NET *1950 0.000000

*CONN
*I *2176:D I *L 0.0006 *D AND4x1_ASAP7_75t_L
*I *2278:Y O *L 0.0000 *D AOI22xp33_ASAP7_75t_L

*CAP
1 *2176:D 0

*RES
1 *2278:Y *2176:D 0
*END

*D_NET *1951 0.000000

*CONN
*I *2145:B I *L 0.0006 *D AND4x1_ASAP7_75t_L
*I *2277:Y O *L 0.0000 *D AOI22xp33_ASAP7_75t_L

*CAP
1 *2145:B 0

*RES
1 *2277:Y *2145:B 0
*END

*D_NET *1952 0.000000

*CONN
*I *2145:D I *L 0.0006 *D AND4x1_ASAP7_75t_L
*I *2276:Y O *L 0.0000 *D AOI22xp33_ASAP7_75t_L

*CAP
1 *2145:D 0

*RES
1 *2276:Y *2145:D 0
*END

*D_NET *1953 0.000000

*CONN
*I *2159:B I *L 0.0006 *D AND4x1_ASAP7_75t_L
*I *2275:Y O *L 0.0000 *D AOI22xp33_ASAP7_75t_L

*CAP
1 *2159:B 0

*RES
1 *2275:Y *2159:B 0
*END

*D_NET *1954 0.000000

*CONN
*I *2159:C I *L 0.0006 *D AND4x1_ASAP7_75t_L
*I *2274:Y O *L 0.0000 *D AOI22xp33_ASAP7_75t_L

*CAP
1 *2159:C 0

*RES
1 *2274:Y *2159:C 0
*END

*D_NET *1955 0.000000

*CONN
*I *2149:C I *L 0.0006 *D AND4x1_ASAP7_75t_L
*I *2273:Y O *L 0.0000 *D AOI22xp33_ASAP7_75t_L

*CAP
1 *2149:C 0

*RES
1 *2273:Y *2149:C 0
*END

*D_NET *1956 0.000000

*CONN
*I *2157:B I *L 0.0006 *D AND4x1_ASAP7_75t_L
*I *2272:Y O *L 0.0000 *D AOI22xp33_ASAP7_75t_L

*CAP
1 *2157:B 0

*RES
1 *2272:Y *2157:B 0
*END

*D_NET *1957 0.000000

*CONN
*I *2155:B I *L 0.0006 *D AND4x1_ASAP7_75t_L
*I *2271:Y O *L 0.0000 *D AOI22xp33_ASAP7_75t_L

*CAP
1 *2155:B 0

*RES
1 *2271:Y *2155:B 0
*END

*D_NET *1958 0.000000

*CONN
*I *2155:C I *L 0.0006 *D AND4x1_ASAP7_75t_L
*I *2270:Y O *L 0.0000 *D AOI22xp33_ASAP7_75t_L

*CAP
1 *2155:C 0

*RES
1 *2270:Y *2155:C 0
*END

*D_NET *1959 0.000000

*CONN
*I *2157:C I *L 0.0006 *D AND4x1_ASAP7_75t_L
*I *2269:Y O *L 0.0000 *D AOI22xp33_ASAP7_75t_L

*CAP
1 *2157:C 0

*RES
1 *2269:Y *2157:C 0
*END

*D_NET *1960 0.000000

*CONN
*I *2153:B I *L 0.0006 *D AND4x1_ASAP7_75t_L
*I *2268:Y O *L 0.0000 *D AOI22xp33_ASAP7_75t_L

*CAP
1 *2153:B 0

*RES
1 *2268:Y *2153:B 0
*END

*D_NET *1961 0.000000

*CONN
*I *2153:D I *L 0.0006 *D AND4x1_ASAP7_75t_L
*I *2267:Y O *L 0.0000 *D AOI22xp33_ASAP7_75t_L

*CAP
1 *2153:D 0

*RES
1 *2267:Y *2153:D 0
*END

*D_NET *1962 0.000000

*CONN
*I *2154:B I *L 0.0006 *D AND4x1_ASAP7_75t_L
*I *2266:Y O *L 0.0000 *D AOI22xp33_ASAP7_75t_L

*CAP
1 *2154:B 0

*RES
1 *2266:Y *2154:B 0
*END

*D_NET *1963 0.000000

*CONN
*I *2154:C I *L 0.0006 *D AND4x1_ASAP7_75t_L
*I *2265:Y O *L 0.0000 *D AOI22xp33_ASAP7_75t_L

*CAP
1 *2154:C 0

*RES
1 *2265:Y *2154:C 0
*END

*D_NET *1964 0.000000

*CONN
*I *2156:C I *L 0.0006 *D AND4x1_ASAP7_75t_L
*I *2264:Y O *L 0.0000 *D AOI22xp33_ASAP7_75t_L

*CAP
1 *2156:C 0

*RES
1 *2264:Y *2156:C 0
*END

*D_NET *1965 0.000000

*CONN
*I *2152:B I *L 0.0006 *D AND4x1_ASAP7_75t_L
*I *2263:Y O *L 0.0000 *D AOI22xp33_ASAP7_75t_L

*CAP
1 *2152:B 0

*RES
1 *2263:Y *2152:B 0
*END

*D_NET *1966 0.000000

*CONN
*I *2152:C I *L 0.0006 *D AND4x1_ASAP7_75t_L
*I *2262:Y O *L 0.0000 *D AOI22xp33_ASAP7_75t_L

*CAP
1 *2152:C 0

*RES
1 *2262:Y *2152:C 0
*END

*D_NET *1967 0.000000

*CONN
*I *2151:B I *L 0.0006 *D AND4x1_ASAP7_75t_L
*I *2261:Y O *L 0.0000 *D AOI22xp33_ASAP7_75t_L

*CAP
1 *2151:B 0

*RES
1 *2261:Y *2151:B 0
*END

*D_NET *1968 0.000000

*CONN
*I *2151:C I *L 0.0006 *D AND4x1_ASAP7_75t_L
*I *2260:Y O *L 0.0000 *D AOI22xp33_ASAP7_75t_L

*CAP
1 *2151:C 0

*RES
1 *2260:Y *2151:C 0
*END

*D_NET *1969 0.000000

*CONN
*I *2150:B I *L 0.0006 *D AND4x1_ASAP7_75t_L
*I *2259:Y O *L 0.0000 *D AOI22xp33_ASAP7_75t_L

*CAP
1 *2150:B 0

*RES
1 *2259:Y *2150:B 0
*END

*D_NET *1970 0.000000

*CONN
*I *2150:C I *L 0.0006 *D AND4x1_ASAP7_75t_L
*I *2258:Y O *L 0.0000 *D AOI22xp33_ASAP7_75t_L

*CAP
1 *2150:C 0

*RES
1 *2258:Y *2150:C 0
*END

*D_NET *1971 0.000000

*CONN
*I *2147:B I *L 0.0006 *D AND4x1_ASAP7_75t_L
*I *2257:Y O *L 0.0000 *D AOI22xp33_ASAP7_75t_L

*CAP
1 *2147:B 0

*RES
1 *2257:Y *2147:B 0
*END

*D_NET *1972 0.000000

*CONN
*I *2148:B I *L 0.0006 *D AND4x1_ASAP7_75t_L
*I *2256:Y O *L 0.0000 *D AOI22xp33_ASAP7_75t_L

*CAP
1 *2148:B 0

*RES
1 *2256:Y *2148:B 0
*END

*D_NET *1973 0.000000

*CONN
*I *2160:B I *L 0.0006 *D AND4x1_ASAP7_75t_L
*I *2255:Y O *L 0.0000 *D AOI22xp33_ASAP7_75t_L

*CAP
1 *2160:B 0

*RES
1 *2255:Y *2160:B 0
*END

*D_NET *1974 0.000000

*CONN
*I *2148:C I *L 0.0006 *D AND4x1_ASAP7_75t_L
*I *2254:Y O *L 0.0000 *D AOI22xp33_ASAP7_75t_L

*CAP
1 *2148:C 0

*RES
1 *2254:Y *2148:C 0
*END

*D_NET *1975 0.000000

*CONN
*I *2173:B I *L 0.0006 *D AND4x1_ASAP7_75t_L
*I *2253:Y O *L 0.0000 *D AOI22xp33_ASAP7_75t_L

*CAP
1 *2173:B 0

*RES
1 *2253:Y *2173:B 0
*END

*D_NET *1976 0.000000

*CONN
*I *2147:D I *L 0.0006 *D AND4x1_ASAP7_75t_L
*I *2252:Y O *L 0.0000 *D AOI22xp33_ASAP7_75t_L

*CAP
1 *2147:D 0

*RES
1 *2252:Y *2147:D 0
*END

*D_NET *1977 0.000000

*CONN
*I *2160:C I *L 0.0006 *D AND4x1_ASAP7_75t_L
*I *2251:Y O *L 0.0000 *D AOI22xp33_ASAP7_75t_L

*CAP
1 *2160:C 0

*RES
1 *2251:Y *2160:C 0
*END

*D_NET *1978 0.000000

*CONN
*I *2173:C I *L 0.0006 *D AND4x1_ASAP7_75t_L
*I *2250:Y O *L 0.0000 *D AOI22xp33_ASAP7_75t_L

*CAP
1 *2173:C 0

*RES
1 *2250:Y *2173:C 0
*END

*D_NET *1979 0.000000

*CONN
*I *2146:B I *L 0.0006 *D AND4x1_ASAP7_75t_L
*I *2249:Y O *L 0.0000 *D AOI22xp33_ASAP7_75t_L

*CAP
1 *2146:B 0

*RES
1 *2249:Y *2146:B 0
*END

*D_NET *1980 0.000000

*CONN
*I *2146:C I *L 0.0006 *D AND4x1_ASAP7_75t_L
*I *2248:Y O *L 0.0000 *D AOI22xp33_ASAP7_75t_L

*CAP
1 *2146:C 0

*RES
1 *2248:Y *2146:C 0
*END

*D_NET *1981 0.000000

*CONN
*I *2161:B I *L 0.0006 *D AND4x1_ASAP7_75t_L
*I *2247:Y O *L 0.0000 *D AOI22xp33_ASAP7_75t_L

*CAP
1 *2161:B 0

*RES
1 *2247:Y *2161:B 0
*END

*D_NET *1982 0.000000

*CONN
*I *2161:D I *L 0.0006 *D AND4x1_ASAP7_75t_L
*I *2246:Y O *L 0.0000 *D AOI22xp33_ASAP7_75t_L

*CAP
1 *2161:D 0

*RES
1 *2246:Y *2161:D 0
*END

*D_NET *1983 0.000000

*CONN
*I *2175:B I *L 0.0006 *D AND4x1_ASAP7_75t_L
*I *2245:Y O *L 0.0000 *D AOI22xp33_ASAP7_75t_L

*CAP
1 *2175:B 0

*RES
1 *2245:Y *2175:B 0
*END

*D_NET *1984 0.000000

*CONN
*I *2161:C I *L 0.0006 *D AND4x1_ASAP7_75t_L
*I *2244:Y O *L 0.0000 *D AOI22xp33_ASAP7_75t_L

*CAP
1 *2161:C 0

*RES
1 *2244:Y *2161:C 0
*END

*D_NET *1985 0.000000

*CONN
*I *2173:D I *L 0.0006 *D AND4x1_ASAP7_75t_L
*I *2243:Y O *L 0.0000 *D AOI22xp33_ASAP7_75t_L

*CAP
1 *2173:D 0

*RES
1 *2243:Y *2173:D 0
*END

*D_NET *1986 0.000000

*CONN
*I *2175:D I *L 0.0006 *D AND4x1_ASAP7_75t_L
*I *2241:Y O *L 0.0000 *D AOI22xp33_ASAP7_75t_L

*CAP
1 *2175:D 0

*RES
1 *2241:Y *2175:D 0
*END

*D_NET *1987 0.000000

*CONN
*I *2174:C I *L 0.0006 *D AND4x1_ASAP7_75t_L
*I *2240:Y O *L 0.0000 *D AOI22xp33_ASAP7_75t_L

*CAP
1 *2174:C 0

*RES
1 *2240:Y *2174:C 0
*END

*D_NET *1988 0.000000

*CONN
*I *2135:E I *L 0.0005 *D NAND5xp2_ASAP7_75t_L
*I *2239:Y O *L 0.0000 *D AOI22xp33_ASAP7_75t_L

*CAP
1 *2135:E 0

*RES
1 *2239:Y *2135:E 0
*END

*D_NET *1989 0.000000

*CONN
*I *2128:D I *L 0.0005 *D NAND5xp2_ASAP7_75t_L
*I *2238:Y O *L 0.0000 *D AOI22xp33_ASAP7_75t_L

*CAP
1 *2128:D 0

*RES
1 *2238:Y *2128:D 0
*END

*D_NET *1990 0.000000

*CONN
*I *2140:E I *L 0.0005 *D NAND5xp2_ASAP7_75t_L
*I *2237:Y O *L 0.0000 *D AOI22xp33_ASAP7_75t_L

*CAP
1 *2140:E 0

*RES
1 *2237:Y *2140:E 0
*END

*D_NET *1991 0.000000

*CONN
*I *2141:E I *L 0.0005 *D NAND5xp2_ASAP7_75t_L
*I *2236:Y O *L 0.0000 *D AOI22xp33_ASAP7_75t_L

*CAP
1 *2141:E 0

*RES
1 *2236:Y *2141:E 0
*END

*D_NET *1992 0.000000

*CONN
*I *2171:D I *L 0.0006 *D AND4x1_ASAP7_75t_L
*I *2235:Y O *L 0.0000 *D AOI22xp33_ASAP7_75t_L

*CAP
1 *2171:D 0

*RES
1 *2235:Y *2171:D 0
*END

*D_NET *1993 0.000000

*CONN
*I *2172:D I *L 0.0006 *D AND4x1_ASAP7_75t_L
*I *2234:Y O *L 0.0000 *D AOI22xp33_ASAP7_75t_L

*CAP
1 *2172:D 0

*RES
1 *2234:Y *2172:D 0
*END

*D_NET *1994 0.000000

*CONN
*I *2139:E I *L 0.0005 *D NAND5xp2_ASAP7_75t_L
*I *2233:Y O *L 0.0000 *D AOI22xp33_ASAP7_75t_L

*CAP
1 *2139:E 0

*RES
1 *2233:Y *2139:E 0
*END

*D_NET *1995 0.000000

*CONN
*I *2169:D I *L 0.0006 *D AND4x1_ASAP7_75t_L
*I *2232:Y O *L 0.0000 *D AOI22xp33_ASAP7_75t_L

*CAP
1 *2169:D 0

*RES
1 *2232:Y *2169:D 0
*END

*D_NET *1996 0.000000

*CONN
*I *2170:D I *L 0.0006 *D AND4x1_ASAP7_75t_L
*I *2231:Y O *L 0.0000 *D AOI22xp33_ASAP7_75t_L

*CAP
1 *2170:D 0

*RES
1 *2231:Y *2170:D 0
*END

*D_NET *1997 0.000000

*CONN
*I *2136:E I *L 0.0005 *D NAND5xp2_ASAP7_75t_L
*I *2230:Y O *L 0.0000 *D AOI22xp33_ASAP7_75t_L

*CAP
1 *2136:E 0

*RES
1 *2230:Y *2136:E 0
*END

*D_NET *1998 0.000000

*CONN
*I *2138:E I *L 0.0005 *D NAND5xp2_ASAP7_75t_L
*I *2229:Y O *L 0.0000 *D AOI22xp33_ASAP7_75t_L

*CAP
1 *2138:E 0

*RES
1 *2229:Y *2138:E 0
*END

*D_NET *1999 0.000000

*CONN
*I *2168:D I *L 0.0006 *D AND4x1_ASAP7_75t_L
*I *2228:Y O *L 0.0000 *D AOI22xp33_ASAP7_75t_L

*CAP
1 *2168:D 0

*RES
1 *2228:Y *2168:D 0
*END

*D_NET *2000 0.000000

*CONN
*I *2124:D I *L 0.0005 *D NAND5xp2_ASAP7_75t_L
*I *2227:Y O *L 0.0000 *D AOI22xp33_ASAP7_75t_L

*CAP
1 *2124:D 0

*RES
1 *2227:Y *2124:D 0
*END

*D_NET *2001 0.000000

*CONN
*I *2114:E I *L 0.0005 *D NAND5xp2_ASAP7_75t_L
*I *2226:Y O *L 0.0000 *D AOI22xp33_ASAP7_75t_L

*CAP
1 *2114:E 0

*RES
1 *2226:Y *2114:E 0
*END

*D_NET *2002 0.000000

*CONN
*I *2167:D I *L 0.0006 *D AND4x1_ASAP7_75t_L
*I *2225:Y O *L 0.0000 *D AOI22xp33_ASAP7_75t_L

*CAP
1 *2167:D 0

*RES
1 *2225:Y *2167:D 0
*END

*D_NET *2003 0.000000

*CONN
*I *2137:E I *L 0.0005 *D NAND5xp2_ASAP7_75t_L
*I *2224:Y O *L 0.0000 *D AOI22xp33_ASAP7_75t_L

*CAP
1 *2137:E 0

*RES
1 *2224:Y *2137:E 0
*END

*D_NET *2004 0.000000

*CONN
*I *2166:D I *L 0.0006 *D AND4x1_ASAP7_75t_L
*I *2223:Y O *L 0.0000 *D AOI22xp33_ASAP7_75t_L

*CAP
1 *2166:D 0

*RES
1 *2223:Y *2166:D 0
*END

*D_NET *2005 0.000000

*CONN
*I *2130:D I *L 0.0005 *D NAND5xp2_ASAP7_75t_L
*I *2222:Y O *L 0.0000 *D AOI22xp33_ASAP7_75t_L

*CAP
1 *2130:D 0

*RES
1 *2222:Y *2130:D 0
*END

*D_NET *2006 0.000000

*CONN
*I *2133:D I *L 0.0005 *D NAND5xp2_ASAP7_75t_L
*I *2221:Y O *L 0.0000 *D AOI22xp33_ASAP7_75t_L

*CAP
1 *2133:D 0

*RES
1 *2221:Y *2133:D 0
*END

*D_NET *2007 0.000000

*CONN
*I *2131:E I *L 0.0005 *D NAND5xp2_ASAP7_75t_L
*I *2220:Y O *L 0.0000 *D AOI22xp33_ASAP7_75t_L

*CAP
1 *2131:E 0

*RES
1 *2220:Y *2131:E 0
*END

*D_NET *2008 0.000000

*CONN
*I *2164:D I *L 0.0006 *D AND4x1_ASAP7_75t_L
*I *2219:Y O *L 0.0000 *D AOI22xp33_ASAP7_75t_L

*CAP
1 *2164:D 0

*RES
1 *2219:Y *2164:D 0
*END

*D_NET *2009 0.000000

*CONN
*I *2165:D I *L 0.0006 *D AND4x1_ASAP7_75t_L
*I *2218:Y O *L 0.0000 *D AOI22xp33_ASAP7_75t_L

*CAP
1 *2165:D 0

*RES
1 *2218:Y *2165:D 0
*END

*D_NET *2010 0.000000

*CONN
*I *2132:E I *L 0.0005 *D NAND5xp2_ASAP7_75t_L
*I *2217:Y O *L 0.0000 *D AOI22xp33_ASAP7_75t_L

*CAP
1 *2132:E 0

*RES
1 *2217:Y *2132:E 0
*END

*D_NET *2011 0.000000

*CONN
*I *2163:D I *L 0.0006 *D AND4x1_ASAP7_75t_L
*I *2216:Y O *L 0.0000 *D AOI22xp33_ASAP7_75t_L

*CAP
1 *2163:D 0

*RES
1 *2216:Y *2163:D 0
*END

*D_NET *2012 0.000000

*CONN
*I *2127:D I *L 0.0005 *D NAND5xp2_ASAP7_75t_L
*I *2215:Y O *L 0.0000 *D AOI22xp33_ASAP7_75t_L

*CAP
1 *2127:D 0

*RES
1 *2215:Y *2127:D 0
*END

*D_NET *2013 0.000000

*CONN
*I *2162:D I *L 0.0006 *D AND4x1_ASAP7_75t_L
*I *2214:Y O *L 0.0000 *D AOI22xp33_ASAP7_75t_L

*CAP
1 *2162:D 0

*RES
1 *2214:Y *2162:D 0
*END

*D_NET *2014 0.000000

*CONN
*I *2144:E I *L 0.0005 *D NAND5xp2_ASAP7_75t_L
*I *2213:Y O *L 0.0000 *D AOI22xp33_ASAP7_75t_L

*CAP
1 *2144:E 0

*RES
1 *2213:Y *2144:E 0
*END

*D_NET *2015 0.000000

*CONN
*I *2119:D I *L 0.0005 *D NAND5xp2_ASAP7_75t_L
*I *2212:Y O *L 0.0000 *D AOI22xp33_ASAP7_75t_L

*CAP
1 *2119:D 0

*RES
1 *2212:Y *2119:D 0
*END

*D_NET *2016 0.000000

*CONN
*I *2176:C I *L 0.0006 *D AND4x1_ASAP7_75t_L
*I *2211:Y O *L 0.0000 *D AOI22xp33_ASAP7_75t_L

*CAP
1 *2176:C 0

*RES
1 *2211:Y *2176:C 0
*END

*D_NET *2017 0.000000

*CONN
*I *2158:D I *L 0.0006 *D AND4x1_ASAP7_75t_L
*I *2210:Y O *L 0.0000 *D AOI22xp33_ASAP7_75t_L

*CAP
1 *2158:D 0

*RES
1 *2210:Y *2158:D 0
*END

*D_NET *2018 0.000000

*CONN
*I *2145:C I *L 0.0006 *D AND4x1_ASAP7_75t_L
*I *2209:Y O *L 0.0000 *D AOI22xp33_ASAP7_75t_L

*CAP
1 *2145:C 0

*RES
1 *2209:Y *2145:C 0
*END

*D_NET *2019 0.000000

*CONN
*I *2113:E I *L 0.0005 *D NAND5xp2_ASAP7_75t_L
*I *2208:Y O *L 0.0000 *D AOI22xp33_ASAP7_75t_L

*CAP
1 *2113:E 0

*RES
1 *2208:Y *2113:E 0
*END

*D_NET *2020 0.000000

*CONN
*I *2125:D I *L 0.0005 *D NAND5xp2_ASAP7_75t_L
*I *2207:Y O *L 0.0000 *D AOI22xp33_ASAP7_75t_L

*CAP
1 *2125:D 0

*RES
1 *2207:Y *2125:D 0
*END

*D_NET *2021 0.000000

*CONN
*I *2159:D I *L 0.0006 *D AND4x1_ASAP7_75t_L
*I *2206:Y O *L 0.0000 *D AOI22xp33_ASAP7_75t_L

*CAP
1 *2159:D 0

*RES
1 *2206:Y *2159:D 0
*END

*D_NET *2022 0.000000

*CONN
*I *2126:D I *L 0.0005 *D NAND5xp2_ASAP7_75t_L
*I *2205:Y O *L 0.0000 *D AOI22xp33_ASAP7_75t_L

*CAP
1 *2126:D 0

*RES
1 *2205:Y *2126:D 0
*END

*D_NET *2023 0.000000

*CONN
*I *2157:D I *L 0.0006 *D AND4x1_ASAP7_75t_L
*I *2204:Y O *L 0.0000 *D AOI22xp33_ASAP7_75t_L

*CAP
1 *2157:D 0

*RES
1 *2204:Y *2157:D 0
*END

*D_NET *2024 0.000000

*CONN
*I *2123:D I *L 0.0005 *D NAND5xp2_ASAP7_75t_L
*I *2203:Y O *L 0.0000 *D AOI22xp33_ASAP7_75t_L

*CAP
1 *2123:D 0

*RES
1 *2203:Y *2123:D 0
*END

*D_NET *2025 0.000000

*CONN
*I *2155:D I *L 0.0006 *D AND4x1_ASAP7_75t_L
*I *2202:Y O *L 0.0000 *D AOI22xp33_ASAP7_75t_L

*CAP
1 *2155:D 0

*RES
1 *2202:Y *2155:D 0
*END

*D_NET *2026 0.000000

*CONN
*I *2149:D I *L 0.0006 *D AND4x1_ASAP7_75t_L
*I *2201:Y O *L 0.0000 *D AOI22xp33_ASAP7_75t_L

*CAP
1 *2149:D 0

*RES
1 *2201:Y *2149:D 0
*END

*D_NET *2027 0.000000

*CONN
*I *2154:D I *L 0.0006 *D AND4x1_ASAP7_75t_L
*I *2200:Y O *L 0.0000 *D AOI22xp33_ASAP7_75t_L

*CAP
1 *2154:D 0

*RES
1 *2200:Y *2154:D 0
*END

*D_NET *2028 0.000000

*CONN
*I *2156:D I *L 0.0006 *D AND4x1_ASAP7_75t_L
*I *2199:Y O *L 0.0000 *D AOI22xp33_ASAP7_75t_L

*CAP
1 *2156:D 0

*RES
1 *2199:Y *2156:D 0
*END

*D_NET *2029 0.000000

*CONN
*I *2153:C I *L 0.0006 *D AND4x1_ASAP7_75t_L
*I *2198:Y O *L 0.0000 *D AOI22xp33_ASAP7_75t_L

*CAP
1 *2153:C 0

*RES
1 *2198:Y *2153:C 0
*END

*D_NET *2030 0.000000

*CONN
*I *2120:E I *L 0.0005 *D NAND5xp2_ASAP7_75t_L
*I *2197:Y O *L 0.0000 *D AOI22xp33_ASAP7_75t_L

*CAP
1 *2120:E 0

*RES
1 *2197:Y *2120:E 0
*END

*D_NET *2031 0.000000

*CONN
*I *2122:E I *L 0.0005 *D NAND5xp2_ASAP7_75t_L
*I *2196:Y O *L 0.0000 *D AOI22xp33_ASAP7_75t_L

*CAP
1 *2122:E 0

*RES
1 *2196:Y *2122:E 0
*END

*D_NET *2032 0.000000

*CONN
*I *2152:D I *L 0.0006 *D AND4x1_ASAP7_75t_L
*I *2195:Y O *L 0.0000 *D AOI22xp33_ASAP7_75t_L

*CAP
1 *2152:D 0

*RES
1 *2195:Y *2152:D 0
*END

*D_NET *2033 0.000000

*CONN
*I *2115:D I *L 0.0005 *D NAND5xp2_ASAP7_75t_L
*I *2194:Y O *L 0.0000 *D AOI22xp33_ASAP7_75t_L

*CAP
1 *2115:D 0

*RES
1 *2194:Y *2115:D 0
*END

*D_NET *2034 0.000000

*CONN
*I *2151:D I *L 0.0006 *D AND4x1_ASAP7_75t_L
*I *2193:Y O *L 0.0000 *D AOI22xp33_ASAP7_75t_L

*CAP
1 *2151:D 0

*RES
1 *2193:Y *2151:D 0
*END

*D_NET *2035 0.000000

*CONN
*I *2134:E I *L 0.0005 *D NAND5xp2_ASAP7_75t_L
*I *2192:Y O *L 0.0000 *D AOI22xp33_ASAP7_75t_L

*CAP
1 *2134:E 0

*RES
1 *2192:Y *2134:E 0
*END

*D_NET *2036 0.000000

*CONN
*I *2121:E I *L 0.0005 *D NAND5xp2_ASAP7_75t_L
*I *2191:Y O *L 0.0000 *D AOI22xp33_ASAP7_75t_L

*CAP
1 *2121:E 0

*RES
1 *2191:Y *2121:E 0
*END

*D_NET *2037 0.000000

*CONN
*I *2150:A I *L 0.0006 *D AND4x1_ASAP7_75t_L
*I *2190:Y O *L 0.0000 *D AOI22xp33_ASAP7_75t_L

*CAP
1 *2150:A 0

*RES
1 *2190:Y *2150:A 0
*END

*D_NET *2038 0.000000

*CONN
*I *2118:D I *L 0.0005 *D NAND5xp2_ASAP7_75t_L
*I *2189:Y O *L 0.0000 *D AOI22xp33_ASAP7_75t_L

*CAP
1 *2118:D 0

*RES
1 *2189:Y *2118:D 0
*END

*D_NET *2039 0.000000

*CONN
*I *2116:E I *L 0.0005 *D NAND5xp2_ASAP7_75t_L
*I *2188:Y O *L 0.0000 *D AOI22xp33_ASAP7_75t_L

*CAP
1 *2116:E 0

*RES
1 *2188:Y *2116:E 0
*END

*D_NET *2040 0.000000

*CONN
*I *2148:D I *L 0.0006 *D AND4x1_ASAP7_75t_L
*I *2187:Y O *L 0.0000 *D AOI22xp33_ASAP7_75t_L

*CAP
1 *2148:D 0

*RES
1 *2187:Y *2148:D 0
*END

*D_NET *2041 0.000000

*CONN
*I *2147:C I *L 0.0006 *D AND4x1_ASAP7_75t_L
*I *2186:Y O *L 0.0000 *D AOI22xp33_ASAP7_75t_L

*CAP
1 *2147:C 0

*RES
1 *2186:Y *2147:C 0
*END

*D_NET *2042 0.000000

*CONN
*I *2117:E I *L 0.0005 *D NAND5xp2_ASAP7_75t_L
*I *2185:Y O *L 0.0000 *D AOI22xp33_ASAP7_75t_L

*CAP
1 *2117:E 0

*RES
1 *2185:Y *2117:E 0
*END

*D_NET *2043 0.000000

*CONN
*I *2160:D I *L 0.0006 *D AND4x1_ASAP7_75t_L
*I *2184:Y O *L 0.0000 *D AOI22xp33_ASAP7_75t_L

*CAP
1 *2160:D 0

*RES
1 *2184:Y *2160:D 0
*END

*D_NET *2044 0.000000

*CONN
*I *2146:D I *L 0.0006 *D AND4x1_ASAP7_75t_L
*I *2183:Y O *L 0.0000 *D AOI22xp33_ASAP7_75t_L

*CAP
1 *2146:D 0

*RES
1 *2183:Y *2146:D 0
*END

*D_NET *2045 0.000000

*CONN
*I *2129:D I *L 0.0005 *D NAND5xp2_ASAP7_75t_L
*I *2182:Y O *L 0.0000 *D AOI22xp33_ASAP7_75t_L

*CAP
1 *2129:D 0

*RES
1 *2182:Y *2129:D 0
*END

*D_NET *2046 0.000000

*CONN
*I *2142:E I *L 0.0005 *D NAND5xp2_ASAP7_75t_L
*I *2181:Y O *L 0.0000 *D AOI22xp33_ASAP7_75t_L

*CAP
1 *2142:E 0

*RES
1 *2181:Y *2142:E 0
*END

*D_NET *2047 0.000000

*CONN
*I *2143:D I *L 0.0005 *D NAND5xp2_ASAP7_75t_L
*I *2177:Y O *L 0.0000 *D AOI22xp33_ASAP7_75t_L

*CAP
1 *2143:D 0

*RES
1 *2177:Y *2143:D 0
*END

*D_NET *2048 0.000000

*CONN
*I *2144:A I *L 0.0005 *D NAND5xp2_ASAP7_75t_L
*I *2176:Y O *L 0.0000 *D AND4x1_ASAP7_75t_L

*CAP
1 *2144:A 0

*RES
1 *2176:Y *2144:A 0
*END

*D_NET *2049 0.000000

*CONN
*I *2142:A I *L 0.0005 *D NAND5xp2_ASAP7_75t_L
*I *2175:Y O *L 0.0000 *D AND4x1_ASAP7_75t_L

*CAP
1 *2142:A 0

*RES
1 *2175:Y *2142:A 0
*END

*D_NET *2050 0.000000

*CONN
*I *2143:A I *L 0.0005 *D NAND5xp2_ASAP7_75t_L
*I *2174:Y O *L 0.0000 *D AND4x1_ASAP7_75t_L

*CAP
1 *2143:A 0

*RES
1 *2174:Y *2143:A 0
*END

*D_NET *2051 0.000000

*CONN
*I *2134:A I *L 0.0005 *D NAND5xp2_ASAP7_75t_L
*I *2173:Y O *L 0.0000 *D AND4x1_ASAP7_75t_L

*CAP
1 *2134:A 0

*RES
1 *2173:Y *2134:A 0
*END

*D_NET *2052 0.000000

*CONN
*I *2141:A I *L 0.0005 *D NAND5xp2_ASAP7_75t_L
*I *2172:Y O *L 0.0000 *D AND4x1_ASAP7_75t_L

*CAP
1 *2141:A 0

*RES
1 *2172:Y *2141:A 0
*END

*D_NET *2053 0.000000

*CONN
*I *2140:A I *L 0.0005 *D NAND5xp2_ASAP7_75t_L
*I *2171:Y O *L 0.0000 *D AND4x1_ASAP7_75t_L

*CAP
1 *2140:A 0

*RES
1 *2171:Y *2140:A 0
*END

*D_NET *2054 0.000000

*CONN
*I *2139:A I *L 0.0005 *D NAND5xp2_ASAP7_75t_L
*I *2170:Y O *L 0.0000 *D AND4x1_ASAP7_75t_L

*CAP
1 *2139:A 0

*RES
1 *2170:Y *2139:A 0
*END

*D_NET *2055 0.000000

*CONN
*I *2135:A I *L 0.0005 *D NAND5xp2_ASAP7_75t_L
*I *2169:Y O *L 0.0000 *D AND4x1_ASAP7_75t_L

*CAP
1 *2135:A 0

*RES
1 *2169:Y *2135:A 0
*END

*D_NET *2056 0.000000

*CONN
*I *2138:A I *L 0.0005 *D NAND5xp2_ASAP7_75t_L
*I *2168:Y O *L 0.0000 *D AND4x1_ASAP7_75t_L

*CAP
1 *2138:A 0

*RES
1 *2168:Y *2138:A 0
*END

*D_NET *2057 0.000000

*CONN
*I *2136:A I *L 0.0005 *D NAND5xp2_ASAP7_75t_L
*I *2167:Y O *L 0.0000 *D AND4x1_ASAP7_75t_L

*CAP
1 *2136:A 0

*RES
1 *2167:Y *2136:A 0
*END

*D_NET *2058 0.000000

*CONN
*I *2137:A I *L 0.0005 *D NAND5xp2_ASAP7_75t_L
*I *2166:Y O *L 0.0000 *D AND4x1_ASAP7_75t_L

*CAP
1 *2137:A 0

*RES
1 *2166:Y *2137:A 0
*END

*D_NET *2059 0.000000

*CONN
*I *2133:A I *L 0.0005 *D NAND5xp2_ASAP7_75t_L
*I *2165:Y O *L 0.0000 *D AND4x1_ASAP7_75t_L

*CAP
1 *2133:A 0

*RES
1 *2165:Y *2133:A 0
*END

*D_NET *2060 0.000000

*CONN
*I *2131:A I *L 0.0005 *D NAND5xp2_ASAP7_75t_L
*I *2164:Y O *L 0.0000 *D AND4x1_ASAP7_75t_L

*CAP
1 *2131:A 0

*RES
1 *2164:Y *2131:A 0
*END

*D_NET *2061 0.000000

*CONN
*I *2132:A I *L 0.0005 *D NAND5xp2_ASAP7_75t_L
*I *2163:Y O *L 0.0000 *D AND4x1_ASAP7_75t_L

*CAP
1 *2132:A 0

*RES
1 *2163:Y *2132:A 0
*END

*D_NET *2062 0.000000

*CONN
*I *2130:A I *L 0.0005 *D NAND5xp2_ASAP7_75t_L
*I *2162:Y O *L 0.0000 *D AND4x1_ASAP7_75t_L

*CAP
1 *2130:A 0

*RES
1 *2162:Y *2130:A 0
*END

*D_NET *2063 0.000000

*CONN
*I *2129:A I *L 0.0005 *D NAND5xp2_ASAP7_75t_L
*I *2161:Y O *L 0.0000 *D AND4x1_ASAP7_75t_L

*CAP
1 *2129:A 0

*RES
1 *2161:Y *2129:A 0
*END

*D_NET *2064 0.000000

*CONN
*I *2115:A I *L 0.0005 *D NAND5xp2_ASAP7_75t_L
*I *2160:Y O *L 0.0000 *D AND4x1_ASAP7_75t_L

*CAP
1 *2115:A 0

*RES
1 *2160:Y *2115:A 0
*END

*D_NET *2065 0.000000

*CONN
*I *2113:A I *L 0.0005 *D NAND5xp2_ASAP7_75t_L
*I *2159:Y O *L 0.0000 *D AND4x1_ASAP7_75t_L

*CAP
1 *2113:A 0

*RES
1 *2159:Y *2113:A 0
*END

*D_NET *2066 0.000000

*CONN
*I *2124:A I *L 0.0005 *D NAND5xp2_ASAP7_75t_L
*I *2158:Y O *L 0.0000 *D AND4x1_ASAP7_75t_L

*CAP
1 *2124:A 0

*RES
1 *2158:Y *2124:A 0
*END

*D_NET *2067 0.000000

*CONN
*I *2126:A I *L 0.0005 *D NAND5xp2_ASAP7_75t_L
*I *2157:Y O *L 0.0000 *D AND4x1_ASAP7_75t_L

*CAP
1 *2126:A 0

*RES
1 *2157:Y *2126:A 0
*END

*D_NET *2068 0.000000

*CONN
*I *2128:A I *L 0.0005 *D NAND5xp2_ASAP7_75t_L
*I *2156:Y O *L 0.0000 *D AND4x1_ASAP7_75t_L

*CAP
1 *2128:A 0

*RES
1 *2156:Y *2128:A 0
*END

*D_NET *2069 0.000000

*CONN
*I *2125:A I *L 0.0005 *D NAND5xp2_ASAP7_75t_L
*I *2155:Y O *L 0.0000 *D AND4x1_ASAP7_75t_L

*CAP
1 *2125:A 0

*RES
1 *2155:Y *2125:A 0
*END

*D_NET *2070 0.000000

*CONN
*I *2123:A I *L 0.0005 *D NAND5xp2_ASAP7_75t_L
*I *2154:Y O *L 0.0000 *D AND4x1_ASAP7_75t_L

*CAP
1 *2123:A 0

*RES
1 *2154:Y *2123:A 0
*END

*D_NET *2071 0.000000

*CONN
*I *2119:A I *L 0.0005 *D NAND5xp2_ASAP7_75t_L
*I *2153:Y O *L 0.0000 *D AND4x1_ASAP7_75t_L

*CAP
1 *2119:A 0

*RES
1 *2153:Y *2119:A 0
*END

*D_NET *2072 0.000000

*CONN
*I *2122:A I *L 0.0005 *D NAND5xp2_ASAP7_75t_L
*I *2152:Y O *L 0.0000 *D AND4x1_ASAP7_75t_L

*CAP
1 *2122:A 0

*RES
1 *2152:Y *2122:A 0
*END

*D_NET *2073 0.000000

*CONN
*I *2120:A I *L 0.0005 *D NAND5xp2_ASAP7_75t_L
*I *2151:Y O *L 0.0000 *D AND4x1_ASAP7_75t_L

*CAP
1 *2120:A 0

*RES
1 *2151:Y *2120:A 0
*END

*D_NET *2074 0.000000

*CONN
*I *2121:A I *L 0.0005 *D NAND5xp2_ASAP7_75t_L
*I *2150:Y O *L 0.0000 *D AND4x1_ASAP7_75t_L

*CAP
1 *2121:A 0

*RES
1 *2150:Y *2121:A 0
*END

*D_NET *2075 0.000000

*CONN
*I *2114:A I *L 0.0005 *D NAND5xp2_ASAP7_75t_L
*I *2149:Y O *L 0.0000 *D AND4x1_ASAP7_75t_L

*CAP
1 *2114:A 0

*RES
1 *2149:Y *2114:A 0
*END

*D_NET *2076 0.000000

*CONN
*I *2118:A I *L 0.0005 *D NAND5xp2_ASAP7_75t_L
*I *2148:Y O *L 0.0000 *D AND4x1_ASAP7_75t_L

*CAP
1 *2118:A 0

*RES
1 *2148:Y *2118:A 0
*END

*D_NET *2077 0.000000

*CONN
*I *2116:A I *L 0.0005 *D NAND5xp2_ASAP7_75t_L
*I *2147:Y O *L 0.0000 *D AND4x1_ASAP7_75t_L

*CAP
1 *2116:A 0

*RES
1 *2147:Y *2116:A 0
*END

*D_NET *2078 0.000000

*CONN
*I *2117:A I *L 0.0005 *D NAND5xp2_ASAP7_75t_L
*I *2146:Y O *L 0.0000 *D AND4x1_ASAP7_75t_L

*CAP
1 *2117:A 0

*RES
1 *2146:Y *2117:A 0
*END

*D_NET *2079 0.000000

*CONN
*I *2127:A I *L 0.0005 *D NAND5xp2_ASAP7_75t_L
*I *2145:Y O *L 0.0000 *D AND4x1_ASAP7_75t_L

*CAP
1 *2127:A 0

*RES
1 *2145:Y *2127:A 0
*END

*D_NET *2080 0.000000

*CONN
*I *2112:banksel I *L 0.0003 *D srambank_256x4x32_6t122
*I *2242:Y O *L 0.0000 *D NOR2xp33_ASAP7_75t_L

*CAP
1 *2112:banksel 0

*RES
1 *2242:Y *2112:banksel 0
*END

*D_NET *2081 0.000000

*CONN
*I *2111:banksel I *L 0.0003 *D srambank_256x4x32_6t122
*I *2178:Y O *L 0.0000 *D NOR2xp33_ASAP7_75t_L

*CAP
1 *2111:banksel 0

*RES
1 *2178:Y *2111:banksel 0
*END

*D_NET *2082 0.000000

*CONN
*I *2110:banksel I *L 0.0003 *D srambank_256x4x32_6t122
*I *2443:Y O *L 0.0000 *D NOR3xp33_ASAP7_75t_L

*CAP
1 *2110:banksel 0

*RES
1 *2443:Y *2110:banksel 0
*END

*D_NET *2083 0.000000

*CONN
*I *2109:banksel I *L 0.0003 *D srambank_256x4x32_6t122
*I *2446:Y O *L 0.0000 *D NOR3xp33_ASAP7_75t_L

*CAP
1 *2109:banksel 0

*RES
1 *2446:Y *2109:banksel 0
*END

*D_NET *2084 0.000000

*CONN
*I *2108:banksel I *L 0.0003 *D srambank_256x4x32_6t122
*I *2440:Y O *L 0.0000 *D NOR2xp33_ASAP7_75t_L

*CAP
1 *2108:banksel 0

*RES
1 *2440:Y *2108:banksel 0
*END

*D_NET *2085 0.000000

*CONN
*I *2107:banksel I *L 0.0003 *D srambank_256x4x32_6t122
*I *2449:Y O *L 0.0000 *D AND2x2_ASAP7_75t_L

*CAP
1 *2107:banksel 0

*RES
1 *2449:Y *2107:banksel 0
*END

*D_NET *2086 0.000000

*CONN
*I *2106:banksel I *L 0.0003 *D srambank_256x4x32_6t122
*I *2438:Y O *L 0.0000 *D AND2x2_ASAP7_75t_L

*CAP
1 *2106:banksel 0

*RES
1 *2438:Y *2106:banksel 0
*END

*D_NET *2087 0.000000

*CONN
*I *2105:banksel I *L 0.0003 *D srambank_256x4x32_6t122
*I *2439:Y O *L 0.0000 *D AND2x2_ASAP7_75t_L

*CAP
1 *2105:banksel 0

*RES
1 *2439:Y *2105:banksel 0
*END

*D_NET *2088 0.000000

*CONN
*I *2104:banksel I *L 0.0003 *D srambank_256x4x32_6t122
*I *2180:Y O *L 0.0000 *D NOR3xp33_ASAP7_75t_L

*CAP
1 *2104:banksel 0

*RES
1 *2180:Y *2104:banksel 0
*END

*D_NET *2089 0.000000

*CONN
*I *2103:banksel I *L 0.0003 *D srambank_256x4x32_6t122
*I *2179:Y O *L 0.0000 *D NOR3xp33_ASAP7_75t_L

*CAP
1 *2103:banksel 0

*RES
1 *2179:Y *2103:banksel 0
*END

*D_NET *2090 0.000000

*CONN
*I *2102:banksel I *L 0.0003 *D srambank_256x4x32_6t122
*I *2447:Y O *L 0.0000 *D AND3x1_ASAP7_75t_L

*CAP
1 *2102:banksel 0

*RES
1 *2447:Y *2102:banksel 0
*END

*D_NET *2091 0.000000

*CONN
*I *2101:banksel I *L 0.0003 *D srambank_256x4x32_6t122
*I *2448:Y O *L 0.0000 *D AND3x1_ASAP7_75t_L

*CAP
1 *2101:banksel 0

*RES
1 *2448:Y *2101:banksel 0
*END

*D_NET *2092 0.000000

*CONN
*I *2100:banksel I *L 0.0003 *D srambank_256x4x32_6t122
*I *2437:Y O *L 0.0000 *D NOR2xp33_ASAP7_75t_L

*CAP
1 *2100:banksel 0

*RES
1 *2437:Y *2100:banksel 0
*END

*D_NET *2093 0.000000

*CONN
*I *2099:banksel I *L 0.0003 *D srambank_256x4x32_6t122
*I *2441:Y O *L 0.0000 *D NOR2xp33_ASAP7_75t_L

*CAP
1 *2099:banksel 0

*RES
1 *2441:Y *2099:banksel 0
*END

*D_NET *2094 0.000000

*CONN
*I *2098:banksel I *L 0.0003 *D srambank_256x4x32_6t122
*I *2444:Y O *L 0.0000 *D NOR2xp33_ASAP7_75t_L

*CAP
1 *2098:banksel 0

*RES
1 *2444:Y *2098:banksel 0
*END

*D_NET *2095 0.000000

*CONN
*I *2097:banksel I *L 0.0003 *D srambank_256x4x32_6t122
*I *2445:Y O *L 0.0000 *D NOR2xp33_ASAP7_75t_L

*CAP
1 *2097:banksel 0

*RES
1 *2445:Y *2097:banksel 0
*END

*D_NET *2096 0.000000

*CONN
*I *2100:read I *L 0.0003 *D srambank_256x4x32_6t122
*I *2103:read I *L 0.0003 *D srambank_256x4x32_6t122
*I *2105:read I *L 0.0003 *D srambank_256x4x32_6t122
*I *2098:read I *L 0.0003 *D srambank_256x4x32_6t122
*I *2099:read I *L 0.0003 *D srambank_256x4x32_6t122
*I *2102:read I *L 0.0003 *D srambank_256x4x32_6t122
*I *2097:read I *L 0.0003 *D srambank_256x4x32_6t122
*I *2107:read I *L 0.0003 *D srambank_256x4x32_6t122
*I *2537:B1 I *L 0.0004 *D AOI22xp33_ASAP7_75t_L
*I *2536:B1 I *L 0.0004 *D AOI22xp33_ASAP7_75t_L
*I *2534:B1 I *L 0.0004 *D AOI22xp33_ASAP7_75t_L
*I *2539:Y O *L 0.0000 *D HB1xp67_ASAP7_75t_L

*CAP
1 *2100:read 0
2 *2103:read 0
3 *2105:read 0
4 *2098:read 0
5 *2099:read 0
6 *2102:read 0
7 *2097:read 0
8 *2107:read 0
9 *2537:B1 0
10 *2536:B1 0
11 *2534:B1 0

*RES
1 *2539:Y *2100:read 0
2 *2539:Y *2103:read 0
3 *2539:Y *2105:read 0
4 *2539:Y *2098:read 0
5 *2539:Y *2099:read 0
6 *2539:Y *2102:read 0
7 *2539:Y *2097:read 0
8 *2539:Y *2107:read 0
9 *2539:Y *2537:B1 0
10 *2539:Y *2536:B1 0
11 *2539:Y *2534:B1 0
*END
